 &control
    calculation='scf'
    restart_mode='from_scratch'
    pseudo_dir = '.'
    outdir='.'
    prefix='mo4x'
    tprnfor= .true.
    tstress= .true.
    disk_io='none'
 /
 &system
    ibrav=  0, celldm(1) =23.8, nat=  127, ntyp= 1, ecutwfc =100.0,
    occupations='smearing', smearing='fd', degauss=0.00316683186972920421
 /
 &electrons
    diagonalization='david'
    conv_thr=1.0D-7
    mixing_mode='TF'
 /
ATOMIC_SPECIES
 42 95.95 Mo_ONCV_PBE-1.0.upf
ATOMIC_POSITIONS crystal
42  0.125000000000 0.125000000000 0.125000000000
42  0.000000000000 0.000000000000 0.250000000000
42  0.125000000000 0.125000000000 0.375000000000
42  0.000000000000 0.000000000000 0.500000000000
42  0.125000000000 0.125000000000 0.625000000000
42  0.000000000000 0.000000000000 0.750000000000
42  0.125000000000 0.125000000000 0.875000000000
42  0.000000000000 0.250000000000 0.000000000000
42  0.125000000000 0.375000000000 0.125000000000
42  0.000000000000 0.250000000000 0.250000000000
42  0.125000000000 0.375000000000 0.375000000000
42  0.000000000000 0.250000000000 0.500000000000
42  0.125000000000 0.375000000000 0.625000000000
42  0.000000000000 0.250000000000 0.750000000000
42  0.125000000000 0.375000000000 0.875000000000
42  0.000000000000 0.500000000000 0.000000000000
42  0.125000000000 0.625000000000 0.125000000000
42  0.000000000000 0.500000000000 0.250000000000
42  0.125000000000 0.625000000000 0.375000000000
42  0.000000000000 0.500000000000 0.500000000000
42  0.125000000000 0.625000000000 0.625000000000
42  0.000000000000 0.500000000000 0.750000000000
42  0.125000000000 0.625000000000 0.875000000000
42  0.000000000000 0.750000000000 0.000000000000
42  0.125000000000 0.875000000000 0.125000000000
42  0.000000000000 0.750000000000 0.250000000000
42  0.125000000000 0.875000000000 0.375000000000
42  0.000000000000 0.750000000000 0.500000000000
42  0.125000000000 0.875000000000 0.625000000000
42  0.000000000000 0.750000000000 0.750000000000
42  0.125000000000 0.875000000000 0.875000000000
42  0.250000000000 0.000000000000 0.000000000000
42  0.375000000000 0.125000000000 0.125000000000
42  0.250000000000 0.000000000000 0.250000000000
42  0.375000000000 0.125000000000 0.375000000000
42  0.250000000000 0.000000000000 0.500000000000
42  0.375000000000 0.125000000000 0.625000000000
42  0.250000000000 0.000000000000 0.750000000000
42  0.375000000000 0.125000000000 0.875000000000
42  0.250000000000 0.250000000000 0.000000000000
42  0.375000000000 0.375000000000 0.125000000000
42  0.250000000000 0.250000000000 0.250000000000
42  0.375000000000 0.375000000000 0.375000000000
42  0.250000000000 0.250000000000 0.500000000000
42  0.375000000000 0.375000000000 0.625000000000
42  0.250000000000 0.250000000000 0.750000000000
42  0.375000000000 0.375000000000 0.875000000000
42  0.250000000000 0.500000000000 0.000000000000
42  0.375000000000 0.625000000000 0.125000000000
42  0.250000000000 0.500000000000 0.250000000000
42  0.375000000000 0.625000000000 0.375000000000
42  0.250000000000 0.500000000000 0.500000000000
42  0.375000000000 0.625000000000 0.625000000000
42  0.250000000000 0.500000000000 0.750000000000
42  0.375000000000 0.625000000000 0.875000000000
42  0.250000000000 0.750000000000 0.000000000000
42  0.375000000000 0.875000000000 0.125000000000
42  0.250000000000 0.750000000000 0.250000000000
42  0.375000000000 0.875000000000 0.375000000000
42  0.250000000000 0.750000000000 0.500000000000
42  0.375000000000 0.875000000000 0.625000000000
42  0.250000000000 0.750000000000 0.750000000000
42  0.375000000000 0.875000000000 0.875000000000
42  0.500000000000 0.000000000000 0.000000000000
42  0.625000000000 0.125000000000 0.125000000000
42  0.500000000000 0.000000000000 0.250000000000
42  0.625000000000 0.125000000000 0.375000000000
42  0.500000000000 0.000000000000 0.500000000000
42  0.625000000000 0.125000000000 0.625000000000
42  0.500000000000 0.000000000000 0.750000000000
42  0.625000000000 0.125000000000 0.875000000000
42  0.500000000000 0.250000000000 0.000000000000
42  0.625000000000 0.375000000000 0.125000000000
42  0.500000000000 0.250000000000 0.250000000000
42  0.625000000000 0.375000000000 0.375000000000
42  0.500000000000 0.250000000000 0.500000000000
42  0.625000000000 0.375000000000 0.625000000000
42  0.500000000000 0.250000000000 0.750000000000
42  0.625000000000 0.375000000000 0.875000000000
42  0.500000000000 0.500000000000 0.000000000000
42  0.625000000000 0.625000000000 0.125000000000
42  0.500000000000 0.500000000000 0.250000000000
42  0.625000000000 0.625000000000 0.375000000000
42  0.500000000000 0.500000000000 0.500000000000
42  0.625000000000 0.625000000000 0.625000000000
42  0.500000000000 0.500000000000 0.750000000000
42  0.625000000000 0.625000000000 0.875000000000
42  0.500000000000 0.750000000000 0.000000000000
42  0.625000000000 0.875000000000 0.125000000000
42  0.500000000000 0.750000000000 0.250000000000
42  0.625000000000 0.875000000000 0.375000000000
42  0.500000000000 0.750000000000 0.500000000000
42  0.625000000000 0.875000000000 0.625000000000
42  0.500000000000 0.750000000000 0.750000000000
42  0.625000000000 0.875000000000 0.875000000000
42  0.750000000000 0.000000000000 0.000000000000
42  0.875000000000 0.125000000000 0.125000000000
42  0.750000000000 0.000000000000 0.250000000000
42  0.875000000000 0.125000000000 0.375000000000
42  0.750000000000 0.000000000000 0.500000000000
42  0.875000000000 0.125000000000 0.625000000000
42  0.750000000000 0.000000000000 0.750000000000
42  0.875000000000 0.125000000000 0.875000000000
42  0.750000000000 0.250000000000 0.000000000000
42  0.875000000000 0.375000000000 0.125000000000
42  0.750000000000 0.250000000000 0.250000000000
42  0.875000000000 0.375000000000 0.375000000000
42  0.750000000000 0.250000000000 0.500000000000
42  0.875000000000 0.375000000000 0.625000000000
42  0.750000000000 0.250000000000 0.750000000000
42  0.875000000000 0.375000000000 0.875000000000
42  0.750000000000 0.500000000000 0.000000000000
42  0.875000000000 0.625000000000 0.125000000000
42  0.750000000000 0.500000000000 0.250000000000
42  0.875000000000 0.625000000000 0.375000000000
42  0.750000000000 0.500000000000 0.500000000000
42  0.875000000000 0.625000000000 0.625000000000
42  0.750000000000 0.500000000000 0.750000000000
42  0.875000000000 0.625000000000 0.875000000000
42  0.750000000000 0.750000000000 0.000000000000
42  0.875000000000 0.875000000000 0.125000000000
42  0.750000000000 0.750000000000 0.250000000000
42  0.875000000000 0.875000000000 0.375000000000
42  0.750000000000 0.750000000000 0.500000000000
42  0.875000000000 0.875000000000 0.625000000000
42  0.750000000000 0.750000000000 0.750000000000
42  0.875000000000 0.875000000000 0.875000000000
CELL_PARAMETERS alat
1.000000000000 0.00 0.00
0.000000000000 1.0  0.000000000000
0.000000000000 0.000000000000 1.0
K_POINTS gamma
