BEGIN
BEGIN_PATH_INPUT
&PATH
  restart_mode      = 'restart'
  string_method     = 'neb',
  nstep_path        = 150,
  ds                = 1.D0,
  opt_scheme        = "broyden",
  num_of_images     = 7,
  CI_scheme         = 'no-CI',
  path_thr          = 0.005,
  minimum_image = .true.
/
END_PATH_INPUT
BEGIN_ENGINE_INPUT
&control
    nstep=200
    prefix='Li2O_222_neb'
    pseudo_dir = './',
    tprnfor=.true.
    max_seconds = 82800,
 /
&system
    ibrav=  0, 
    occupations='smearing',
    smearing='fd',
    degauss=0.003166831869729,
    nat=95, ntyp= 2, 
    ecutwfc = 75,nosym=.true.
 /
 &electrons
   /
 &IONS
 /
&cell
/
ATOMIC_SPECIES
 Li 6.0 Li.upf
 O  16.0 O.upf
CELL_PARAMETERS {bohr}
17.417120000000001 0.00000 0.000000
0.0000 17.417120000000001 0.00000
0.0000 0.00000 17.417120000000001
K_POINTS gamma

BEGIN_POSITIONS
FIRST_IMAGE
ATOMIC_POSITIONS {crystal}
O	0.491678547	0.758226931	0.241773022
O	0.758227234	0.491678344	0.241772956
O	0.49167852	0.491678413	0.508321491
O	0.758227115	0.758226986	0.508321515
Li	0.625002931	0.397541881	0.374997363
Li	0.397541402	0.625002708	0.374997299
Li	0.852450318	0.625006727	0.374993151
Li	0.625006908	0.85245074	0.374993101
Li	0.625007008	0.625006823	0.147549298
Li	0.625002817	0.625002623	0.602458104
Li	0.374187879	0.374187694	0.378378082
Li	0.628384763	0.374188128	0.124196381
Li	0.875803799	0.374188154	0.37161546
Li	0.374188251	0.628384546	0.124196329
Li	0.374188197	0.875803713	0.371615476
Li	0.621621462	0.875798949	0.124201022
Li	0.8757991	0.621621293	0.124201079
Li	0.875799057	0.87579891	0.378378601
Li	0.621622059	0.374187738	0.62581228
Li	0.374187798	0.621621995	0.625812324
Li	0.628384557	0.875803646	0.625811848
Li	0.875803743	0.628384473	0.625811821
O	0.49940333	0.25069119	0.249395246
O	0.250691175	0.499403227	0.249395276
O	0.499404318	0.499404196	0.000684634
O	0.750605919	0.750605804	0.000681985
O	0.750604826	0.250691255	0.500596783
O	0.250691064	0.750604753	0.500596836
O	0.499403268	0.750604753	0.749308791
O	0.750604856	0.499403142	0.749308803
Li	0.376973552	0.376973523	0.12698117
Li	0.877980489	0.372013597	0.122019654
Li	0.372013671	0.87798037	0.122019652
Li	0.873016848	0.873016835	0.126983131
Li	0.372010009	0.372010014	0.627990066
Li	0.873018895	0.376973425	0.623026561
Li	0.376973424	0.873018922	0.623026496
Li	0.877980355	0.877980337	0.627986334
Li	0.625006023	0.125005935	0.374994156
Li	0.125005351	0.625005898	0.374994171
Li	0.625006021	0.62500591	0.874994013
O	0.750865881	0.248307088	0.998323439
O	0.248306977	0.75086574	0.998323454
O	0.248306839	0.248306957	0.500857385
O	0.49914267	0.248307013	0.751693108
O	0.248306799	0.499142592	0.751693078
Li	0.375498349	0.125005422	0.374992845
Li	0.125005573	0.375498357	0.374992882
Li	0.874490313	0.125005441	0.374996086
Li	0.62500396	0.125005399	0.125509699
Li	0.125005568	0.874490336	0.37499607
Li	0.125005611	0.625003927	0.125509702
Li	0.625007238	0.375498397	0.874994549
Li	0.625007173	0.1250055	0.624501651
Li	0.375498337	0.625007193	0.874994597
Li	0.125005535	0.62500717	0.624501669
Li	0.87449028	0.625003908	0.874994563
Li	0.625003906	0.874490334	0.874994622
Li	0.12700444	0.37493002	0.124941014
Li	0.374929926	0.127004378	0.124940955
Li	0.875059086	0.123004379	0.12494086
Li	0.123004457	0.875059176	0.124940805
Li	0.12300508	0.374929376	0.625070659
Li	0.374929315	0.123005124	0.62507059
Li	0.374929366	0.374929443	0.876994955
Li	0.87505896	0.127004334	0.62506997
Li	0.875059005	0.374929974	0.872995624
Li	0.127004303	0.875059014	0.625069936
Li	0.374929856	0.875059104	0.872995649
Li	0.875059011	0.875059104	0.876995588
O	0.249771378	0.249771621	0.99977361
O	0.750605961	0.999318017	0.249394175
O	0.999317992	0.750605805	0.249394191
O	0.499404261	0.999315401	0.500595797
O	0.999315374	0.499404146	0.500595797
Li	0.125004946	0.125004992	0.374994944
Li	0.625005007	0.125005032	0.874995003
Li	0.125004929	0.625005029	0.874994996
O	0.001676552	0.248307088	0.249134284
O	0.248307004	0.001676616	0.249134322
O	0.499144673	0.001678926	0.99832112
O	0.001678856	0.499144561	0.998321104
O	0.750865749	0.001676597	0.751692884
O	0.001676488	0.750865708	0.751692913
Li	0.125006836	0.125006926	0.124979977
Li	0.374969512	0.125003717	0.874996381
Li	0.125003599	0.374969636	0.874996408
Li	0.125003508	0.125003592	0.625030318
Li	0.875019898	0.125006843	0.874993106
Li	0.125006727	0.875019996	0.874993065
O	0.000226227	0.249771584	0.750228417
O	0.249771368	0.000226408	0.750228386
Li	0.125005887	0.125006086	0.874993908
O	0.00167874	0.001678982	0.500855372
O	0.000227392	0.000227594	0.999772403


INTERMEDIATE_IMAGE
ATOMIC_POSITIONS {crystal}
O	0.491705997	0.758293976	0.241705972
O	0.758294077	0.491705953	0.241706033
O	0.491706105	0.491706097	0.508293954
O	0.758293964	0.758293897	0.50829396
Li	0.625000202	0.397533831	0.375000229
Li	0.397533376	0.625000019	0.374999994
Li	0.852466224	0.624999769	0.375000093
Li	0.624999871	0.852466659	0.374999809
Li	0.624999996	0.625000093	0.147533376
Li	0.646574833	0.603428797	0.568941372
Li	0.37419591	0.374195607	0.378379903
Li	0.628379895	0.374195587	0.124195993
Li	0.875804236	0.374195619	0.371620468
Li	0.374196035	0.628379673	0.124196137
Li	0.374195932	0.875803917	0.371620304
Li	0.621620338	0.87580396	0.124195985
Li	0.875804425	0.621620201	0.124195822
Li	0.87580435	0.875804113	0.378379681
Li	0.621620362	0.374195686	0.625804255
Li	0.3741958	0.621620155	0.62580438
Li	0.628379701	0.875804046	0.625804354
Li	0.875804156	0.628379494	0.625804257
O	0.499418803	0.250662031	0.249418821
O	0.250662178	0.499418661	0.249418762
O	0.499418743	0.499418627	0.000662197
O	0.750581512	0.750581308	0.00066218
O	0.750581233	0.250662389	0.500581318
O	0.250662156	0.750581216	0.500581415
O	0.499418815	0.750581111	0.749337908
O	0.750581309	0.499418634	0.749337682
Li	0.376974882	0.376974805	0.126974965
Li	0.877985828	0.372014289	0.122014439
Li	0.372014767	0.877985309	0.122014735
Li	0.873025196	0.873025207	0.126974743
Li	0.372014381	0.372014301	0.627985755
Li	0.873025155	0.376974618	0.623025303
Li	0.376974712	0.873025174	0.623025195
Li	0.877985614	0.877985504	0.627985578
Li	0.62500023	0.12500041	0.375000172
Li	0.124999529	0.624999934	0.375000174
Li	0.625000182	0.624999986	0.87499957
O	0.750857503	0.24834811	0.99834811
O	0.248348186	0.750857552	0.99834816
O	0.248348092	0.248348051	0.500857506
O	0.499142421	0.248348099	0.75165192
O	0.24834809	0.499142565	0.751651864
Li	0.375512843	0.125000151	0.375000107
Li	0.125000044	0.375512764	0.375000106
Li	0.874487168	0.125000127	0.375000044
Li	0.625000151	0.12500012	0.125512828
Li	0.124999989	0.874487188	0.375000068
Li	0.124999992	0.624999887	0.12551283
Li	0.625000101	0.375512814	0.87499998
Li	0.625000078	0.125000169	0.624487189
Li	0.37551282	0.624999898	0.874999929
Li	0.125000021	0.624999945	0.62448724
Li	0.874487171	0.62499998	0.875000014
Li	0.625000103	0.874487192	0.875
Li	0.127018822	0.374933275	0.124933255
Li	0.374933212	0.127019088	0.124933177
Li	0.875066771	0.12298129	0.124933194
Li	0.122981053	0.87506688	0.124933117
Li	0.122981106	0.374933114	0.625066912
Li	0.374933171	0.122981326	0.625066769
Li	0.374933218	0.37493326	0.877018829
Li	0.875066771	0.127018931	0.62506675
Li	0.875066874	0.37493317	0.872981097
Li	0.12701869	0.875066775	0.625066649
Li	0.374933129	0.875066912	0.872980979
Li	0.875066664	0.87506676	0.877018757
O	0.249794411	0.249794634	0.999794489
O	0.750581493	0.999337792	0.24941864
O	0.999337936	0.750581244	0.249418758
O	0.49941867	0.999337832	0.500581404
O	0.999337674	0.499418717	0.500581292
Li	0.124999842	0.125000212	0.375000036
Li	0.625000066	0.125000245	0.87499984
Li	0.124999819	0.624999832	0.874999823
O	0.00165198	0.248348065	0.249142451
O	0.248348212	0.001651925	0.249142514
O	0.499142545	0.001651847	0.998348214
O	0.001651813	0.499142607	0.998348105
O	0.750857418	0.001651855	0.751651809
O	0.001651849	0.750857578	0.751651873
Li	0.124999883	0.125000288	0.124970052
Li	0.374970069	0.125000291	0.874999853
Li	0.124999922	0.374970138	0.874999948
Li	0.124999822	0.125000101	0.625029852
Li	0.875029886	0.12500013	0.87499984
Li	0.124999758	0.875029954	0.874999732
O	0.000205248	0.249794606	0.750205303
O	0.249794339	0.000205576	0.750205345
Li	0.124999784	0.125000211	0.874999784
O	0.001651799	0.001651874	0.50085737
O	0.00020535	0.000205542	0.999794404


INTERMEDIATE_IMAGE
ATOMIC_POSITIONS {crystal}
O	0.491705997	0.758293976	0.241705972
O	0.758294077	0.491705953	0.241706033
O	0.491706105	0.491706097	0.508293954
O	0.758293964	0.758293897	0.50829396
Li	0.625000202	0.397533831	0.375000229
Li	0.397533376	0.625000019	0.374999994
Li	0.852466224	0.624999769	0.375000093
Li	0.624999871	0.852466659	0.374999809
Li	0.624999996	0.625000093	0.147533376
Li	0.668146848	0.581854971	0.53542464
Li	0.37419591	0.374195607	0.378379903
Li	0.628379895	0.374195587	0.124195993
Li	0.875804236	0.374195619	0.371620468
Li	0.374196035	0.628379673	0.124196137
Li	0.374195932	0.875803917	0.371620304
Li	0.621620338	0.87580396	0.124195985
Li	0.875804425	0.621620201	0.124195822
Li	0.87580435	0.875804113	0.378379681
Li	0.621620362	0.374195686	0.625804255
Li	0.3741958	0.621620155	0.62580438
Li	0.628379701	0.875804046	0.625804354
Li	0.875804156	0.628379494	0.625804257
O	0.499418803	0.250662031	0.249418821
O	0.250662178	0.499418661	0.249418762
O	0.499418743	0.499418627	0.000662197
O	0.750581512	0.750581308	0.00066218
O	0.750581233	0.250662389	0.500581318
O	0.250662156	0.750581216	0.500581415
O	0.499418815	0.750581111	0.749337908
O	0.750581309	0.499418634	0.749337682
Li	0.376974882	0.376974805	0.126974965
Li	0.877985828	0.372014289	0.122014439
Li	0.372014767	0.877985309	0.122014735
Li	0.873025196	0.873025207	0.126974743
Li	0.372014381	0.372014301	0.627985755
Li	0.873025155	0.376974618	0.623025303
Li	0.376974712	0.873025174	0.623025195
Li	0.877985614	0.877985504	0.627985578
Li	0.62500023	0.12500041	0.375000172
Li	0.124999529	0.624999934	0.375000174
Li	0.625000182	0.624999986	0.87499957
O	0.750857503	0.24834811	0.99834811
O	0.248348186	0.750857552	0.99834816
O	0.248348092	0.248348051	0.500857506
O	0.499142421	0.248348099	0.75165192
O	0.24834809	0.499142565	0.751651864
Li	0.375512843	0.125000151	0.375000107
Li	0.125000044	0.375512764	0.375000106
Li	0.874487168	0.125000127	0.375000044
Li	0.625000151	0.12500012	0.125512828
Li	0.124999989	0.874487188	0.375000068
Li	0.124999992	0.624999887	0.12551283
Li	0.625000101	0.375512814	0.87499998
Li	0.625000078	0.125000169	0.624487189
Li	0.37551282	0.624999898	0.874999929
Li	0.125000021	0.624999945	0.62448724
Li	0.874487171	0.62499998	0.875000014
Li	0.625000103	0.874487192	0.875
Li	0.127018822	0.374933275	0.124933255
Li	0.374933212	0.127019088	0.124933177
Li	0.875066771	0.12298129	0.124933194
Li	0.122981053	0.87506688	0.124933117
Li	0.122981106	0.374933114	0.625066912
Li	0.374933171	0.122981326	0.625066769
Li	0.374933218	0.37493326	0.877018829
Li	0.875066771	0.127018931	0.62506675
Li	0.875066874	0.37493317	0.872981097
Li	0.12701869	0.875066775	0.625066649
Li	0.374933129	0.875066912	0.872980979
Li	0.875066664	0.87506676	0.877018757
O	0.249794411	0.249794634	0.999794489
O	0.750581493	0.999337792	0.24941864
O	0.999337936	0.750581244	0.249418758
O	0.49941867	0.999337832	0.500581404
O	0.999337674	0.499418717	0.500581292
Li	0.124999842	0.125000212	0.375000036
Li	0.625000066	0.125000245	0.87499984
Li	0.124999819	0.624999832	0.874999823
O	0.00165198	0.248348065	0.249142451
O	0.248348212	0.001651925	0.249142514
O	0.499142545	0.001651847	0.998348214
O	0.001651813	0.499142607	0.998348105
O	0.750857418	0.001651855	0.751651809
O	0.001651849	0.750857578	0.751651873
Li	0.124999883	0.125000288	0.124970052
Li	0.374970069	0.125000291	0.874999853
Li	0.124999922	0.374970138	0.874999948
Li	0.124999822	0.125000101	0.625029852
Li	0.875029886	0.12500013	0.87499984
Li	0.124999758	0.875029954	0.874999732
O	0.000205248	0.249794606	0.750205303
O	0.249794339	0.000205576	0.750205345
Li	0.124999784	0.125000211	0.874999784
O	0.001651799	0.001651874	0.50085737
O	0.00020535	0.000205542	0.999794404

INTERMEDIATE_IMAGE
ATOMIC_POSITIONS {crystal}
O	0.491705997	0.758293976	0.241705972
O	0.758294077	0.491705953	0.241706033
O	0.491706105	0.491706097	0.508293954
O	0.758293964	0.758293897	0.50829396
Li	0.625000202	0.397533831	0.375000229
Li	0.397533376	0.625000019	0.374999994
Li	0.852466224	0.624999769	0.375000093
Li	0.624999871	0.852466659	0.374999809
Li	0.624999996	0.625000093	0.147533376
Li	0.689718864	0.560281145	0.501907907
Li	0.37419591	0.374195607	0.378379903
Li	0.628379895	0.374195587	0.124195993
Li	0.875804236	0.374195619	0.371620468
Li	0.374196035	0.628379673	0.124196137
Li	0.374195932	0.875803917	0.371620304
Li	0.621620338	0.87580396	0.124195985
Li	0.875804425	0.621620201	0.124195822
Li	0.87580435	0.875804113	0.378379681
Li	0.621620362	0.374195686	0.625804255
Li	0.3741958	0.621620155	0.62580438
Li	0.628379701	0.875804046	0.625804354
Li	0.875804156	0.628379494	0.625804257
O	0.499418803	0.250662031	0.249418821
O	0.250662178	0.499418661	0.249418762
O	0.499418743	0.499418627	0.000662197
O	0.750581512	0.750581308	0.00066218
O	0.750581233	0.250662389	0.500581318
O	0.250662156	0.750581216	0.500581415
O	0.499418815	0.750581111	0.749337908
O	0.750581309	0.499418634	0.749337682
Li	0.376974882	0.376974805	0.126974965
Li	0.877985828	0.372014289	0.122014439
Li	0.372014767	0.877985309	0.122014735
Li	0.873025196	0.873025207	0.126974743
Li	0.372014381	0.372014301	0.627985755
Li	0.873025155	0.376974618	0.623025303
Li	0.376974712	0.873025174	0.623025195
Li	0.877985614	0.877985504	0.627985578
Li	0.62500023	0.12500041	0.375000172
Li	0.124999529	0.624999934	0.375000174
Li	0.625000182	0.624999986	0.87499957
O	0.750857503	0.24834811	0.99834811
O	0.248348186	0.750857552	0.99834816
O	0.248348092	0.248348051	0.500857506
O	0.499142421	0.248348099	0.75165192
O	0.24834809	0.499142565	0.751651864
Li	0.375512843	0.125000151	0.375000107
Li	0.125000044	0.375512764	0.375000106
Li	0.874487168	0.125000127	0.375000044
Li	0.625000151	0.12500012	0.125512828
Li	0.124999989	0.874487188	0.375000068
Li	0.124999992	0.624999887	0.12551283
Li	0.625000101	0.375512814	0.87499998
Li	0.625000078	0.125000169	0.624487189
Li	0.37551282	0.624999898	0.874999929
Li	0.125000021	0.624999945	0.62448724
Li	0.874487171	0.62499998	0.875000014
Li	0.625000103	0.874487192	0.875
Li	0.127018822	0.374933275	0.124933255
Li	0.374933212	0.127019088	0.124933177
Li	0.875066771	0.12298129	0.124933194
Li	0.122981053	0.87506688	0.124933117
Li	0.122981106	0.374933114	0.625066912
Li	0.374933171	0.122981326	0.625066769
Li	0.374933218	0.37493326	0.877018829
Li	0.875066771	0.127018931	0.62506675
Li	0.875066874	0.37493317	0.872981097
Li	0.12701869	0.875066775	0.625066649
Li	0.374933129	0.875066912	0.872980979
Li	0.875066664	0.87506676	0.877018757
O	0.249794411	0.249794634	0.999794489
O	0.750581493	0.999337792	0.24941864
O	0.999337936	0.750581244	0.249418758
O	0.49941867	0.999337832	0.500581404
O	0.999337674	0.499418717	0.500581292
Li	0.124999842	0.125000212	0.375000036
Li	0.625000066	0.125000245	0.87499984
Li	0.124999819	0.624999832	0.874999823
O	0.00165198	0.248348065	0.249142451
O	0.248348212	0.001651925	0.249142514
O	0.499142545	0.001651847	0.998348214
O	0.001651813	0.499142607	0.998348105
O	0.750857418	0.001651855	0.751651809
O	0.001651849	0.750857578	0.751651873
Li	0.124999883	0.125000288	0.124970052
Li	0.374970069	0.125000291	0.874999853
Li	0.124999922	0.374970138	0.874999948
Li	0.124999822	0.125000101	0.625029852
Li	0.875029886	0.12500013	0.87499984
Li	0.124999758	0.875029954	0.874999732
O	0.000205248	0.249794606	0.750205303
O	0.249794339	0.000205576	0.750205345
Li	0.124999784	0.125000211	0.874999784
O	0.001651799	0.001651874	0.50085737
O	0.00020535	0.000205542	0.999794404


INTERMEDIATE_IMAGE
ATOMIC_POSITIONS {crystal}
O	0.494272427	0.755729904	0.244699794
O	0.755729994	0.494272391	0.244699864
O	0.49169811	0.491698116	0.50275665
O	0.758274487	0.758274425	0.50275664
Li	0.623874127	0.389752141	0.374729716
Li	0.389751843	0.623873972	0.374729567
Li	0.860245442	0.626127809	0.374729759
Li	0.626127904	0.860245718	0.374729571
Li	0.625001716	0.625001782	0.14002402
Li	0.668146736	0.581854897	0.467118858
Li	0.373467487	0.373467261	0.376256783
Li	0.627255363	0.374630437	0.124465583
Li	0.874876104	0.375121597	0.373404825
Li	0.374630741	0.627255207	0.124465667
Li	0.375121816	0.87487587	0.373404767
Li	0.622747997	0.875365949	0.124465564
Li	0.875366262	0.622747914	0.124465481
Li	0.876529928	0.876529744	0.376257666
Li	0.622747752	0.381977406	0.625536926
Li	0.381977293	0.622747595	0.62553707
Li	0.627255116	0.868020299	0.62553824
Li	0.868020185	0.627254982	0.625538132
O	0.499326788	0.249878738	0.249049939
O	0.249878841	0.499326687	0.249049909
O	0.499414553	0.499414475	0.000214211
O	0.750588549	0.750588427	0.000214944
O	0.750588092	0.250670786	0.500189283
O	0.250670588	0.750588059	0.50018938
O	0.496839903	0.753132566	0.752303746
O	0.753132721	0.496839762	0.752303617
Li	0.376293213	0.376293178	0.125650694
Li	0.877010549	0.37298632	0.123678353
Li	0.37298662	0.877010213	0.12367854
Li	0.873703443	0.873703487	0.12565033
Li	0.372739216	0.372739114	0.625864455
Li	0.873951408	0.376046122	0.624811485
Li	0.376046191	0.873951388	0.624811462
Li	0.877256979	0.877256872	0.625864101
Li	0.625002258	0.125001869	0.37516681
Li	0.125001291	0.625002028	0.375166834
Li	0.625002113	0.625002005	0.867483967
O	0.750859884	0.24833618	0.999456532
O	0.248336202	0.750859912	0.999456588
O	0.248336127	0.248336099	0.500285915
O	0.499230062	0.249127882	0.751301845
O	0.249127902	0.499230129	0.751301812
Li	0.375318531	0.124334153	0.37497673
Li	0.124334096	0.375318477	0.374976709
Li	0.874678108	0.125668798	0.374976817
Li	0.625001548	0.125001522	0.125343322
Li	0.125668711	0.874678115	0.374976879
Li	0.125001457	0.625001372	0.125343336
Li	0.62612807	0.375071576	0.875267895
Li	0.625001794	0.125001851	0.624659811
Li	0.375071607	0.626127901	0.875267898
Li	0.125001571	0.625001667	0.624659872
Li	0.874924696	0.623873717	0.875266551
Li	0.623873794	0.874924671	0.875266553
Li	0.126346933	0.374945442	0.124956575
Li	0.374945362	0.126347132	0.124956524
Li	0.875051542	0.123656189	0.124957466
Li	0.123656001	0.875051652	0.124957421
Li	0.123655709	0.375122123	0.625046686
Li	0.375122186	0.123655785	0.625046615
Li	0.375613359	0.375613374	0.875685807
Li	0.874874501	0.126347529	0.625045602
Li	0.876038278	0.373960008	0.874647722
Li	0.126347418	0.874874478	0.625045577
Li	0.373959989	0.876038269	0.874647663
Li	0.874383715	0.874383801	0.875685137
O	0.249787761	0.249787972	0.99993753
O	0.750675877	0.000116339	0.249049854
O	0.000116412	0.75067568	0.249049938
O	0.499414512	0.999331288	0.500189649
O	0.999331223	0.499414512	0.500189568
Li	0.125000943	0.12500121	0.374989961
Li	0.62500116	0.125001712	0.874829841
Li	0.125001525	0.625001007	0.874829858
O	0.001175804	0.248823611	0.249353195
O	0.248823626	0.001175829	0.24935324
O	0.499143153	0.001659707	0.999457295
O	0.001659672	0.499143215	0.999457218
O	0.750772508	0.000874718	0.751302069
O	0.000874741	0.750772577	0.751302122
Li	0.12500164	0.125001968	0.124981827
Li	0.37495683	0.125668894	0.875019908
Li	0.125668699	0.374956894	0.875019966
Li	0.125001359	0.125001507	0.625021366
Li	0.875039908	0.124333898	0.875019895
Li	0.12433368	0.875039984	0.875019856
O	0.000694643	0.249300485	0.750425068
O	0.249300322	0.000694852	0.75042512
Li	0.125001836	0.125002139	0.875006935
O	0.00165966	0.001659727	0.500286386
O	0.000211729	0.0002119	0.999937826


INTERMEDIATE_IMAGE
ATOMIC_POSITIONS {crystal}
O	0.496838856	0.753165832	0.247693617
O	0.753165911	0.49683883	0.247693694
O	0.491690115	0.491690136	0.497219347
O	0.758255011	0.758254953	0.497219319
Li	0.622748051	0.381970451	0.374459203
Li	0.381970311	0.622747926	0.374459139
Li	0.868024661	0.627255848	0.374459425
Li	0.627255937	0.868024777	0.374459333
Li	0.625003437	0.625003472	0.132514664
Li	0.646574608	0.603428648	0.432329809
Li	0.372739065	0.372738914	0.374133662
Li	0.626130831	0.375065287	0.124735173
Li	0.873947973	0.376047575	0.375189183
Li	0.375065448	0.626130741	0.124735197
Li	0.3760477	0.873947824	0.375189231
Li	0.623875656	0.874927939	0.124735142
Li	0.8749281	0.623875627	0.12473514
Li	0.877255506	0.877255376	0.37413565
Li	0.623875143	0.389759125	0.625269596
Li	0.389758786	0.623875034	0.62526976
Li	0.62613053	0.860236553	0.625272125
Li	0.860236213	0.62613047	0.625272007
O	0.499234773	0.249095445	0.248681058
O	0.249095505	0.499234713	0.248681055
O	0.499410363	0.499410324	0.999766226
O	0.750595587	0.750595547	0.999767708
O	0.750594952	0.250679182	0.499797248
O	0.25067902	0.750594902	0.499797345
O	0.49426099	0.755684022	0.755269585
O	0.755684132	0.494260891	0.755269552
Li	0.375611545	0.37561155	0.124326424
Li	0.876035271	0.373958352	0.125342267
Li	0.373958472	0.876035116	0.125342346
Li	0.87438169	0.874381767	0.124325916
Li	0.373464051	0.373463927	0.623743155
Li	0.874877661	0.375117625	0.626597668
Li	0.37511767	0.874877601	0.626597729
Li	0.876528344	0.87652824	0.623742625
Li	0.625004285	0.125003327	0.375333448
Li	0.125003053	0.625004122	0.375333493
Li	0.625004044	0.625004025	0.859968365
O	0.750862265	0.248324249	0.000564955
O	0.248324219	0.750862271	0.000565015
O	0.248324162	0.248324147	0.499714323
O	0.499317704	0.249907666	0.750951769
O	0.249907715	0.499317692	0.75095176
Li	0.375124219	0.123668155	0.374953354
Li	0.123668147	0.375124191	0.374953311
Li	0.874869047	0.126337469	0.37495359
Li	0.625002945	0.125002923	0.125173815
Li	0.126337432	0.874869042	0.37495369
Li	0.125002922	0.625002858	0.125173842
Li	0.62725604	0.374630338	0.875535809
Li	0.62500351	0.125003532	0.624832434
Li	0.374630394	0.627255905	0.875535867
Li	0.125003122	0.62500339	0.624832504
Li	0.87536222	0.622747454	0.875533089
Li	0.622747485	0.875362149	0.875533105
Li	0.125675044	0.374957609	0.124979895
Li	0.374957512	0.125675175	0.124979871
Li	0.875036312	0.124331088	0.124981737
Li	0.124330948	0.875036424	0.124981726
Li	0.124330311	0.375311131	0.625026461
Li	0.375311201	0.124330244	0.625026461
Li	0.3762935	0.376293487	0.874352784
Li	0.874682232	0.125676127	0.625024455
Li	0.877009681	0.372986847	0.876314348
Li	0.125676146	0.874682181	0.625024505
Li	0.37298685	0.877009625	0.876314347
Li	0.873700766	0.873700841	0.874351517
O	0.249781112	0.249781311	8.06E-05
O	0.750770261	0.000894885	0.248681067
O	0.000894889	0.750770117	0.248681119
O	0.499410355	0.999324744	0.499797895
O	0.999324773	0.499410307	0.499797843
Li	0.125002043	0.125002208	0.374979886
Li	0.625002254	0.125003178	0.874659842
Li	0.125003232	0.625002181	0.874659893
O	0.000699627	0.249299157	0.249563938
O	0.24929904	0.000699732	0.249563966
O	0.499143762	0.001667566	0.000566375
O	0.001667531	0.499143824	0.00056633
O	0.750687599	9.76E-05	0.75095233
O	9.76E-05	0.750687577	0.750952371
Li	0.125003396	0.125003647	0.124993602
Li	0.374943591	0.126337497	0.875039964
Li	0.126337476	0.374943651	0.875039985
Li	0.125002897	0.125002914	0.62501288
Li	0.875049931	0.123667667	0.87503995
Li	0.123667602	0.875050014	0.875039979
O	0.001184037	0.248806364	0.750644833
O	0.248806305	0.001184128	0.750644895
Li	0.125003888	0.125004068	0.875014086
O	0.001667521	0.001667581	0.499715403
O	0.000218107	0.000218258	8.12E-05

LAST_IMAGE
ATOMIC_POSITIONS {crystal}
O	0.499405285	0.75060176	0.25068744
O	0.750601829	0.499405268	0.250687525
O	0.49168212	0.491682156	0.491682043
O	0.758235534	0.75823548	0.491681998
Li	0.621621976	0.374188762	0.37418869
Li	0.374188779	0.621621879	0.374188711
Li	0.875803879	0.628383888	0.374189091
Li	0.62838397	0.875803836	0.374189094
Li	0.625005158	0.625005161	0.125005308
Li	0.62500248	0.6250024	0.397540761
Li	0.372010643	0.372010567	0.372010542
Li	0.625006299	0.375500137	0.125004764
Li	0.873019842	0.376973553	0.37697354
Li	0.375500155	0.625006275	0.125004727
Li	0.376973583	0.873019778	0.376973695
Li	0.625003315	0.874489929	0.125004721
Li	0.874489937	0.625003341	0.125004799
Li	0.877981084	0.877981008	0.372013635
Li	0.625002533	0.397540845	0.625002267
Li	0.397540278	0.625002474	0.62500245
Li	0.625005944	0.852452807	0.625006011
Li	0.852452242	0.625005959	0.625005882
O	0.499142758	0.248312153	0.248312176
O	0.248312168	0.49914274	0.248312201
O	0.499406174	0.499406172	0.999318241
O	0.750602624	0.750602666	0.999320473
O	0.750601811	0.250687578	0.499405213
O	0.250687452	0.750601744	0.499405309
O	0.491682078	0.758235478	0.758235423
O	0.758235544	0.491682019	0.758235487
Li	0.374929876	0.374929923	0.123002153
Li	0.875059992	0.374930383	0.127006181
Li	0.374930325	0.87506002	0.127006151
Li	0.875059937	0.875060047	0.123001502
Li	0.374188886	0.37418874	0.621621854
Li	0.875803914	0.374189129	0.62838385
Li	0.374189149	0.875803815	0.628383996
Li	0.875799709	0.875799608	0.621621148
Li	0.625006312	0.125004786	0.375500087
Li	0.125004814	0.625006217	0.375500153
Li	0.625005975	0.625006045	0.852452763
O	0.750864646	0.248312319	0.001673377
O	0.248312236	0.75086463	0.001673443
O	0.248312197	0.248312196	0.499142731
O	0.499405345	0.250687449	0.750601694
O	0.250687528	0.499405255	0.750601707
Li	0.374929908	0.123002157	0.374929978
Li	0.123002199	0.374929904	0.374929913
Li	0.875059986	0.12700614	0.374930363
Li	0.625004343	0.125004325	0.125004309
Li	0.127006154	0.875059968	0.374930501
Li	0.125004388	0.625004343	0.125004348
Li	0.628384009	0.3741891	0.875803724
Li	0.625005227	0.125005213	0.625005057
Li	0.374189181	0.628383909	0.875803836
Li	0.125004673	0.625005113	0.625005136
Li	0.875799745	0.62162119	0.875799626
Li	0.621621176	0.875799627	0.875799658
Li	0.125003155	0.374969776	0.125003215
Li	0.374969662	0.125003219	0.125003218
Li	0.875021083	0.125005987	0.125006009
Li	0.125005895	0.875021195	0.12500603
Li	0.125004914	0.37550014	0.625006235
Li	0.375500216	0.125004703	0.625006308
Li	0.376973641	0.3769736	0.873019762
Li	0.874489962	0.125004725	0.625003307
Li	0.877981084	0.372013685	0.877980974
Li	0.125004874	0.874489884	0.625003433
Li	0.372013711	0.877980982	0.877981032
Li	0.873017818	0.873017882	0.873017897
O	0.249774463	0.249774649	0.000223614
O	0.750864646	0.001673431	0.248312281
O	0.001673366	0.750864554	0.248312299
O	0.499406197	0.9993182	0.49940614
O	0.999318323	0.499406102	0.499406119
Li	0.125003144	0.125003206	0.374969811
Li	0.625003348	0.125004645	0.874489844
Li	0.125004938	0.625003356	0.874489928
O	0.000223451	0.249774703	0.249774682
O	0.249774454	0.000223635	0.249774692
O	0.49914437	0.001675425	0.001675455
O	0.00167539	0.499144432	0.001675443
O	0.750602689	0.999320444	0.75060259
O	0.999320526	0.750602576	0.750602621
Li	0.125005153	0.125005327	0.125005377
Li	0.374930352	0.1270061	0.87506002
Li	0.127006253	0.374930407	0.875060003
Li	0.125004435	0.12500432	0.625004394
Li	0.875059953	0.123001435	0.875060005
Li	0.123001525	0.875060044	0.875060103
O	0.001673432	0.248312243	0.750864598
O	0.248312288	0.001673404	0.75086467
Li	0.12500594	0.125005996	0.875021237
O	0.001675383	0.001675434	0.499144419
O	0.000224485	0.000224616	0.000224672

END_POSITIONS
END_ENGINE_INPUT
END
