 &control
    calculation='scf'
    restart_mode='from_scratch'
    pseudo_dir = '.'
    outdir='.'
    prefix='WS2'
    tprnfor= .true.
    disk_io='none'
 /
 &system
    ibrav=  0, celldm(1) =40.0, nat=  80, ntyp= 2, ecutwfc =100.0,
    occupations='smearing', nosym=.true., smearing='fd', degauss=0.00316683186972920421
 /
 &electrons
    diagonalization='david'
    conv_thr=1.0D-7
    mixing_beta=0.2
 /
ATOMIC_SPECIES
 74 140 W.upf
 16  32 S.upf
ATOMIC_POSITIONS bohr
 74     2.90541874754 8.83506331553 5.95980648449 
 74     2.88825814584 -1.56028344297 5.95600624553 
 74     -0.06310078535 3.74889227338 5.96269398580 
 74     -0.00901304810 -6.59148046639 5.96024868037 
 74     8.90678597570 8.78703781925 5.95837596192 
 74     6.00307459559 3.75565749241 5.96137684679 
 74     -8.91159910779 8.79086829383 5.95732527427 
 74     -2.91712748977 8.83478174636 5.95804525987 
 74     -3.07377065641 -1.52185019581 5.84802730254 
 74     -6.12956151491 3.75421563149 5.96409805221 
 74     2.90870876049 8.83178653066 -5.85043481345 
 74     2.89617798746 -1.55502433554 -5.85198816821 
 74     -0.02123768552 3.64737052409 -6.03832081987 
 74     -0.00668868514 -6.59351381155 -5.84654764709 
 74     8.90957899071 8.79037696508 -5.85005686825 
 74     6.07131071131 3.78346292061 -5.84651552175 
 74     -8.94925378784 8.65603823427 -6.04740095324 
 74     -3.08806265407 8.84948759400 -5.94989487168 
 74     -2.98487794591 -1.53305438120 -5.95158617644 
 74     -6.06614986964 3.77865734742 -5.85111133535 
 16     2.93464902913 5.39773300048 8.98542975730 
 16     2.87174005097 -5.03490750040 8.93190137895 
 16     2.90536016604 5.40171843259 2.98876038795 
 16     2.87945958164 -5.00225303531 2.97525640604 
 16     -0.00078896060 10.76082637873 8.77492939998 
 16     0.01447057676 -10.76119487530 7.72485969072 
 16     -0.04730645554 0.25110017532 8.92350910584 
 16     -0.00183208935 10.77145419769 3.03542906097 
 16     0.00346481260 -10.52135463228 3.78981901397 
 16     -0.02322945671 0.28420250547 2.99486609262 
 16     8.95509871032 5.40751800165 8.93205255703 
 16     8.96753688678 5.41614838024 2.99148159338 
 16     6.04272671601 10.73242190740 8.74403804925 
 16     6.14633661251 0.01012987616 8.56358244542 
 16     6.05843600815 10.67606460924 3.02977311108 
 16     6.08242607958 0.23769067971 3.05369326265 
 16     -9.23737086069 5.40492340787 8.89899180086 
 16     -9.26669562858 5.40656935921 3.03424420277 
 16     -12.53011068145 10.73337054984 7.89563422831 
 16     12.53494460053 10.71302009067 7.89728584882 
 16     -12.52710034795 10.74904015774 3.99577458029 
 16     12.53201741497 10.73067202113 3.98422268532 
 16     -3.14052522696 5.41147508787 8.98965329489 
 16     -3.22186281296 -5.06884130997 8.69059470856 
 16     -3.13825377632 5.38879648628 2.97609166493 
 16     -3.18145669187 -5.05028986994 2.99682951793 
 16     -6.04129997289 10.72129520078 8.75925034345 
 16     -6.10272362642 0.26085305115 8.76938116448 
 16     -6.05840199308 10.67619877978 3.02707080292 
 16     -6.33233478266 0.14092537074 3.15766031736 
 16     2.91407558230 5.36263889915 -2.95562782220 
 16     2.89593043335 -5.04271962763 -2.89066093243 
 16     3.13179469289 5.43811455513 -8.94720060055 
 16     2.87744135428 -5.00272168736 -8.83513229053 
 16     -0.03201101338 10.75855870754 -3.05258777294 
 16     0.00734442005 -10.77145419769 -4.06749346101 
 16     -0.03232470790 0.27435325361 -2.94456347653 
 16     -0.02230727043 10.76196021432 -8.67055794391 
 16     0.00969712891 -10.51885263507 -7.99913074125 
 16     0.00725560293 0.15623971015 -8.98376112926 
 16     9.22639155270 5.38889853149 -2.91327150389 
 16     9.25478657540 5.40499521746 -8.76056559274 
 16     6.04716001318 10.66304250745 -2.90175362399 
 16     6.08176656521 0.23608063317 -2.96081323031 
 16     6.06019345332 10.73553806555 -8.63629721173 
 16     6.14444688652 0.17292410090 -8.54001567261 
 16     -8.94230715511 5.43488501342 -2.84436264571 
 16     -9.29682164029 5.31411640494 -8.80062778370 
 16     -12.51709235911 10.67850235576 -3.95698228520 
 16     12.53742392102 10.74283996677 -3.88264613399 
 16     -12.54037189357 10.73943468054 -7.84872367037 
 16     12.54037189357 10.73016935402 -7.78030803068 
 16     -2.90123111475 5.40169953533 -2.99859263227 
 16     -3.21307369739 -5.07568022833 -3.04702441963 
 16     -3.14191606529 5.42287391503 -8.98965329489 
 16     -3.12122923489 -5.05227597196 -8.76960793160 
 16     -6.07978424264 10.66832240186 -3.03227699802 
 16     -6.09833568267 0.24752292403 -3.03083891654 
 16     -6.10599663183 10.76642752656 -8.76860448710 
 16     -6.10491570857 0.23765855437 -8.68726879082 
CELL_PARAMETERS alat
1.000000000000 0.00 0.00
0.000000000000 1.0  0.000000000000
0.000000000000 0.000000000000 1.0
K_POINTS gamma
