&control
    calculation='scf'
    restart_mode='from_scratch',
    wf_collect=.true.
    prefix='Al12Mg17_200ecut'
    pseudo_dir = '/home/kartickr/QuantumEspresso_runs/pseudo',
    outdir='/home/kartickr/QuantumEspresso_runs/CPU/Al12Mg17/temp'
    tprnfor=.true.
    tstress=.true.
 /
&system
    ibrav=  0,
    occupations='smearing',
    smearing='fd',
    degauss=0.003166831869729,
    nat=58, ntyp= 2, 
    ecutwfc = 200
 /
 &electrons
  conv_thr = 1.0d-7,
  electron_maxstep = 300     
 /
 &IONS
 /
ATOMIC_SPECIES
 Mg   24.3050000000  Mg.upf 
 Al   26.9815000000  Al.upf
 
ATOMIC_POSITIONS crystal
Mg      0.00000000000000      0.00000000000000      0.00000000000000 
Mg      0.67209900000000      0.32790000000000      0.32790000000000 
Mg      0.32790000000000      0.67209900000000      0.32790000000000 
Mg      0.32790000000000      0.32790000000000      0.67209900000000 
Mg      0.17209900000000      0.17209900000000      0.17209900000000 
Mg      0.14334500000000      0.85665500000000      0.54034700000000 
Mg      0.95965300000000      0.35665500000000      0.35665500000000 
Mg      0.14334500000000      0.54034700000000      0.85665500000000 
Mg      0.85665500000000      0.14334500000000      0.54034700000000 
Mg      0.54034700000000      0.14334500000000      0.85665500000000 
Mg      0.35665500000000      0.95965300000000      0.35665500000000 
Mg      0.35665500000000      0.35665500000000      0.95965300000000 
Mg      0.54034700000000      0.85665500000000      0.14334500000000 
Mg      0.85665500000000      0.54034700000000      0.14334500000000 
Mg      0.14334500000000      0.14334500000000      0.45965300000000 
Mg      0.45965300000000      0.14334500000000      0.14334500000000 
Mg      0.14334500000000      0.45965300000000      0.14334500000000 
Mg      0.50000000000000      0.50000000000000      0.50000000000000 
Mg      0.17209900000000      0.82790100000000      0.82790100000000 
Mg      0.82790100000000      0.17209900000000      0.82790100000000 
Mg      0.82790100000000      0.82790100000000      0.17209900000000 
Mg      0.67209900000000      0.67209900000000      0.67209900000000 
Mg      0.64334500000000      0.35665500000000      0.04034700000000 
Mg      0.45965300000000      0.85665500000000      0.85665500000000 
Mg      0.64334500000000      0.04034700000000      0.35665500000000 
Mg      0.35665500000000      0.64334500000000      0.04034700000000 
Mg      0.04034700000000      0.64334500000000      0.35665500000000 
Mg      0.85665500000000      0.45965300000000      0.85665500000000 
Mg      0.85665500000000      0.85665500000000      0.45965300000000 
Mg      0.04034700000000      0.35665500000000      0.64334500000000 
Mg      0.35665500000000      0.04034700000000      0.64334500000000 
Mg      0.64334500000000      0.64334500000000      0.95965300000000 
Mg      0.95965300000000      0.64334500000000      0.64334500000000 
Mg      0.64334500000000      0.95965300000000      0.64334500000000 
Al      0.90936900000000      0.09063150000000      0.27581300000000 
Al      0.72418600000000      0.09063150000000      0.09063150000000 
Al      0.90936900000000      0.27581300000000      0.09063150000000 
Al      0.09063150000000      0.90936900000000      0.27581300000000 
Al      0.27581300000000      0.90936900000000      0.09063150000000 
Al      0.09063150000000      0.72418600000000      0.09063150000000 
Al      0.09063150000000      0.09063150000000      0.72418600000000 
Al      0.27581300000000      0.09063150000000      0.90936900000000 
Al      0.09063150000000      0.27581300000000      0.90936900000000 
Al      0.40936900000000      0.40936900000000      0.22418700000000 
Al      0.22418700000000      0.40936900000000      0.40936900000000 
Al      0.40936900000000      0.22418700000000      0.40936900000000 
Al      0.40936900000000      0.59063100000000      0.77581400000000 
Al      0.22418700000000      0.59063100000000      0.59063100000000 
Al      0.40936900000000      0.77581400000000      0.59063100000000 
Al      0.59063100000000      0.40936900000000      0.77581400000000 
Al      0.77581400000000      0.40936900000000      0.59063100000000 
Al      0.59063100000000      0.22418700000000      0.59063100000000 
Al      0.59063100000000      0.59063100000000      0.22418700000000 
Al      0.77581400000000      0.59063100000000      0.40936900000000 
Al      0.59063100000000      0.77581400000000      0.40936900000000 
Al      0.90936900000000      0.90936900000000      0.72418600000000 
Al      0.72418600000000      0.90936900000000      0.90936900000000 
Al      0.90936900000000      0.72418600000000      0.90936900000000 


CELL_PARAMETERS {bohr} 
    19.90369923161320      0.00000000000000      0.00000000000000 
    0.00000000000000     19.90369923161320      0.00000000000000 
    0.00000000000000      0.00000000000000     19.90369923161320 

K_POINTS gamma

