 &control
    calculation='scf'
    restart_mode='from_scratch'
    pseudo_dir = '.'
    prefix='CrI3-HT-afm'
    disk_io='minimal'
 /
 &system
    ibrav=0, nat=  144, ntyp= 4, ecutwfc =100.0,
    occupations='smearing', nosym=true, smearing='fd', degauss=0.003166808435346783,
    noinv=true,nspin=2,
    vdw_corr='dft-d3',dftd3_version=6,
    starting_magnetization(1)=0.1,starting_magnetization(2)=0.1,
    starting_magnetization(3)=-0.1,starting_magnetization(4)=-0.1
 /
 &electrons
    diagonalization='david'
    conv_thr=1.0D-7
    mixing_beta=0.2
 /
 &ions
 /
 &cell
    cell_dofree='2Dxy'
 /
ATOMIC_SPECIES
 Cr1 52 Cr.upf
 I1  127 I.upf
 Cr2 52 Cr.upf
 I2  127 I.upf
ATOMIC_POSITIONS crystal
I1    0.30402514   0.14796908   0.31267810
I1    0.18527546   0.26666979   0.31287382
I1    0.06697482   0.02956280   0.31299826
Cr1   0.07420221   0.25913113   0.35906895
Cr1   0.29649198   0.03684136   0.35906895
I1    0.30377053   0.26635852   0.40513965
I1    0.06666354   0.14805787   0.40526409
I1    0.18536425   0.02930819   0.40545981
I2    0.08180292   0.14796908   0.59454019
I2    0.29638657   0.26666979   0.59473591
I2    0.17808593   0.02956280   0.59486035
Cr2   0.18531332   0.25913113   0.64093104
Cr2   0.07426975   0.03684136   0.64093104
I2    0.08154831   0.26635852   0.68700174
I2    0.17777465   0.14805787   0.68712618
I2    0.29647536   0.02930819   0.68732190
I1    0.30402514   0.48130242   0.31267810
I1    0.18527546   0.60000312   0.31287382
I1    0.06697482   0.36289613   0.31299826
Cr1   0.07420221   0.59246446   0.35906895
Cr1   0.29649198   0.37017469   0.35906895
I1    0.30377053   0.59969185   0.40513965
I1    0.06666354   0.48139121   0.40526409
I1    0.18536425   0.36264153   0.40545981
I2    0.08180292   0.48130242   0.59454019
I2    0.29638657   0.60000312   0.59473591
I2    0.17808593   0.36289613   0.59486035
Cr2   0.18531332   0.59246446   0.64093104
Cr2   0.07426975   0.37017469   0.64093104
I2    0.08154831   0.59969185   0.68700174
I2    0.17777465   0.48139121   0.68712618
I2    0.29647536   0.36264153   0.68732190
I1    0.30402514   0.81463575   0.31267810
I1    0.18527546   0.93333646   0.31287382
I1    0.06697482   0.69622947   0.31299826
Cr1   0.07420221   0.92579779   0.35906895
Cr1   0.29649198   0.70350802   0.35906895
I1    0.30377053   0.93302518   0.40513965
I1    0.06666354   0.81472454   0.40526409
I1    0.18536425   0.69597486   0.40545981
I2    0.08180292   0.81463575   0.59454019
I2    0.29638657   0.93333646   0.59473591
I2    0.17808593   0.69622947   0.59486035
Cr2   0.18531332   0.92579779   0.64093104
Cr2   0.07426975   0.70350802   0.64093104
I2    0.08154831   0.93302518   0.68700174
I2    0.17777465   0.81472454   0.68712618
I2    0.29647536   0.69597486   0.68732190
I1    0.63735847   0.14796908   0.31267810
I1    0.51860879   0.26666979   0.31287382
I1    0.40030815   0.02956280   0.31299826
Cr1   0.40753554   0.25913113   0.35906895
Cr1   0.62982531   0.03684136   0.35906895
I1    0.63710387   0.26635852   0.40513965
I1    0.39999688   0.14805787   0.40526409
I1    0.51869758   0.02930819   0.40545981
I2    0.41513625   0.14796908   0.59454019
I2    0.62971990   0.26666979   0.59473591
I2    0.51141926   0.02956280   0.59486035
Cr2   0.51864665   0.25913113   0.64093104
Cr2   0.40760309   0.03684136   0.64093104
I2    0.41488164   0.26635852   0.68700174
I2    0.51110799   0.14805787   0.68712618
I2    0.62980869   0.02930819   0.68732190
I1    0.63735847   0.48130242   0.31267810
I1    0.51860879   0.60000312   0.31287382
I1    0.40030815   0.36289613   0.31299826
Cr1   0.40753554   0.59246446   0.35906895
Cr1   0.62982531   0.37017469   0.35906895
I1    0.63710387   0.59969185   0.40513965
I1    0.39999688   0.48139121   0.40526409
I1    0.51869758   0.36264153   0.40545981
I2    0.41513625   0.48130242   0.59454019
I2    0.62971990   0.60000312   0.59473591
I2    0.51141926   0.36289613   0.59486035
Cr2   0.51864665   0.59246446   0.64093104
Cr2   0.40760309   0.37017469   0.64093104
I2    0.41488164   0.59969185   0.68700174
I2    0.51110799   0.48139121   0.68712618
I2    0.62980869   0.36264153   0.68732190
I1    0.63735847   0.81463575   0.31267810
I1    0.51860879   0.93333646   0.31287382
I1    0.40030815   0.69622947   0.31299826
Cr1   0.40753554   0.92579779   0.35906895
Cr1   0.62982531   0.70350802   0.35906895
I1    0.63710387   0.93302518   0.40513965
I1    0.39999688   0.81472454   0.40526409
I1    0.51869758   0.69597486   0.40545981
I2    0.41513625   0.81463575   0.59454019
I2    0.62971990   0.93333646   0.59473591
I2    0.51141926   0.69622947   0.59486035
Cr2   0.51864665   0.92579779   0.64093104
Cr2   0.40760309   0.70350802   0.64093104
I2    0.41488164   0.93302518   0.68700174
I2    0.51110799   0.81472454   0.68712618
I2    0.62980869   0.69597486   0.68732190
I1    0.97069181   0.14796908   0.31267810
I1    0.85194213   0.26666979   0.31287382
I1    0.73364148   0.02956280   0.31299826
Cr1   0.74086887   0.25913113   0.35906895
Cr1   0.96315864   0.03684136   0.35906895
I1    0.97043720   0.26635852   0.40513965
I1    0.73333021   0.14805787   0.40526409
I1    0.85203092   0.02930819   0.40545981
I2    0.74846958   0.14796908   0.59454019
I2    0.96305324   0.26666979   0.59473591
I2    0.84475259   0.02956280   0.59486035
Cr2   0.85197998   0.25913113   0.64093104
Cr2   0.74093642   0.03684136   0.64093104
I2    0.74821498   0.26635852   0.68700174
I2    0.84444132   0.14805787   0.68712618
I2    0.96314203   0.02930819   0.68732190
I1    0.97069181   0.48130242   0.31267810
I1    0.85194213   0.60000312   0.31287382
I1    0.73364148   0.36289613   0.31299826
Cr1   0.74086887   0.59246446   0.35906895
Cr1   0.96315864   0.37017469   0.35906895
I1    0.97043720   0.59969185   0.40513965
I1    0.73333021   0.48139121   0.40526409
I1    0.85203092   0.36264153   0.40545981
I2    0.74846958   0.48130242   0.59454019
I2    0.96305324   0.60000312   0.59473591
I2    0.84475259   0.36289613   0.59486035
Cr2   0.85197998   0.59246446   0.64093104
Cr2   0.74093642   0.37017469   0.64093104
I2    0.74821498   0.59969185   0.68700174
I2    0.84444132   0.48139121   0.68712618
I2    0.96314203   0.36264153   0.68732190
I1    0.97069181   0.81463575   0.31267810
I1    0.85194213   0.93333646   0.31287382
I1    0.73364148   0.69622947   0.31299826
Cr1   0.74086887   0.92579779   0.35906895
Cr1   0.96315864   0.70350802   0.35906895
I1    0.97043720   0.93302518   0.40513965
I1    0.73333021   0.81472454   0.40526409
I1    0.85203092   0.69597486   0.40545981
I2    0.74846958   0.81463575   0.59454019
I2    0.96305324   0.93333646   0.59473591
I2    0.84475259   0.69622947   0.59486035
Cr2   0.85197998   0.92579779   0.64093104
Cr2   0.74093642   0.70350802   0.64093104
I2    0.74821498   0.93302518   0.68700174
I2    0.84444132   0.81472454   0.68712618
I2    0.96314203   0.69597486   0.68732190
CELL_PARAMETERS bohr
39.50594550 0.00000000 0.00000000
-19.75297275 34.21315240 0.00000000
0.00000000 0.00000000 63.96352078
K_POINTS gamma