&control 
    calculation='scf'
    restart_mode='from_scratch',
    tprnfor = .true.
    wf_collect=.true.
    prefix='Al147'
    pseudo_dir = './',
    outdir='./tmp/'
 /
&system
    ibrav=  0,
    celldm(1)= 70,
    occupations='smearing',
    smearing='fd',
    degauss=0.003166831869729,
    nat= 147, ntyp= 1, nbnd = 264
    ecutwfc = 100
 /
 &electrons
  diagonalization = 'david',
  conv_thr = 1.0d-7,
  electron_maxstep = 300
  mixing_beta = 0.1
 /
ATOMIC_SPECIES
 Al 28.085 Al.upf
CELL_PARAMETERS {alat}
1.00000000           0.00000000          0.00000000
0.00000000           1.00000000          0.00000000
0.00000000           0.00000000          1.00000000
ATOMIC_POSITIONS {bohr}
 Al  -0.00000000000 0.00000000000 0.00000000000
 Al  -0.00000000000 0.00000000000 5.40583134217
 Al  4.83512150988 0.00000000000 2.41756345786
 Al  1.49413394216 4.59847583705 2.41756345786
 Al  -3.91169740002 2.84201311736 2.41756345786
 Al  -3.91169740002 -2.84201311735 2.41756345786
 Al  1.49413394216 -4.59847583704 2.41756345786
 Al  3.91169740001 -2.84201311735 -2.41756345786
 Al  3.91169740001 2.84201311736 -2.41756345786
 Al  -1.49413394216 4.59847583705 -2.41756345786
 Al  -4.83512150988 -0.00000000004 -2.41756345786
 Al  -1.49413394216 -4.59847583704 -2.41756345786
 Al  -0.00000000000 0.00000000000 -5.40583134217
 Al  -0.00000000000 0.00000000000 10.81166268434
 Al  9.67022139644 0.00000000000 4.83512150988
 Al  2.98826788431 9.19694086244 4.83512150988
 Al  -7.82337317670 5.68401542304 4.83512150988
 Al  -7.82337317670 -5.68401542303 4.83512150988
 Al  2.98826788431 -9.19694086243 4.83512150988
 Al  7.82337317670 -5.68401542303 -4.83512150988
 Al  7.82337317670 5.68401542304 -4.83512150988
 Al  -2.98826788431 9.19694086244 -4.83512150988
 Al  -9.67022139644 -0.00000000008 -4.83512150988
 Al  -2.98826788431 -9.19694086243 -4.83512150988
 Al  -0.00000000000 0.00000000000 -10.81166268434
 Al  4.83512150988 0.00000000000 7.82337317670
 Al  1.49413394216 4.59847583705 7.82337317670
 Al  -3.91169740002 2.84201311736 7.82337317670
 Al  -3.91169740002 -2.84201311735 7.82337317670
 Al  1.49413394216 -4.59847583704 7.82337317670
 Al  6.32925545204 4.59847583705 4.83512150988
 Al  6.32925545204 -4.59847583704 4.83512150988
 Al  8.74679728657 -2.84201311735 -0.00000000000
 Al  8.74679728657 2.84201311736 -0.00000000000
 Al  -2.41756345786 7.44047814274 4.83512150988
 Al  5.40583134217 7.44047814274 -0.00000000000
 Al  -0.00000000004 9.19694086244 -0.00000000000
 Al  -7.82337317670 -0.00000000007 4.83512150988
 Al  -5.40583134217 7.44047814274 -0.00000000000
 Al  -8.74679728657 2.84201311736 -0.00000000000
 Al  -2.41756345786 -7.44047814273 4.83512150988
 Al  -8.74679728657 -2.84201311735 -0.00000000000
 Al  -5.40583134217 -7.44047814273 -0.00000000000
 Al  5.40583134217 -7.44047814273 -0.00000000000
 Al  0.00000000013 -9.19694086243 -0.00000000000
 Al  7.82337317670 0.00000000000 -4.83512150988
 Al  2.41756345786 -7.44047814273 -4.83512150988
 Al  3.91169740001 -2.84201311735 -7.82337317670
 Al  2.41756345786 7.44047814274 -4.83512150988
 Al  3.91169740001 2.84201311736 -7.82337317670
 Al  -6.32925545204 4.59847583705 -4.83512150988
 Al  -1.49413394216 4.59847583705 -7.82337317670
 Al  -6.32925545204 -4.59847583704 -4.83512150988
 Al  -4.83512150988 -0.00000000004 -7.82337317670
 Al  -1.49413394216 -4.59847583704 -7.82337317670
 Al  -0.00000000000 0.00000000000 16.21749402651
 Al  14.50535912382 0.00000000000 7.25267956191
 Al  4.48240723230 13.79541129366 7.25267956191
 Al  -11.73508679421 8.52602313456 7.25267956191
 Al  -11.73508679421 -8.52602313455 7.25267956191
 Al  4.48240723230 -13.79541129365 7.25267956191
 Al  11.73508679421 -8.52602313455 -7.25267956191
 Al  11.73508679421 8.52602313456 -7.25267956191
 Al  -4.48240723230 13.79541129366 -7.25267956191
 Al  -14.50535912382 -0.00000000013 -7.25267956191
 Al  -4.48240723230 -13.79541129365 -7.25267956191
 Al  -0.00000000000 0.00000000000 -16.21749402651
 Al  4.83512150988 0.00000000000 13.22920451887
 Al  9.67022139644 0.00000000000 10.24096906955
 Al  1.49413394216 4.59847583705 13.22920451887
 Al  2.98826788431 9.19694086244 10.24096906955
 Al  -3.91169740002 2.84201311736 13.22920451887
 Al  -7.82337317670 5.68401542304 10.24096906955
 Al  -3.91169740002 -2.84201311735 13.22920451887
 Al  -7.82337317670 -5.68401542303 10.24096906955
 Al  1.49413394216 -4.59847583704 13.22920451887
 Al  2.98826788431 -9.19694086243 10.24096906955
 Al  11.16439317942 4.59847583705 7.25267956191
 Al  7.82337317670 9.19694086244 7.25267956191
 Al  11.16439317942 -4.59847583704 7.25267956191
 Al  7.82337317670 -9.19694086243 7.25267956191
 Al  13.58193501395 -2.84201311735 2.41756345786
 Al  12.65851090408 -5.68401542303 -2.41756345786
 Al  13.58193501395 2.84201311736 2.41756345786
 Al  12.65851090408 5.68401542304 -2.41756345786
 Al  -0.92342410987 12.03894857396 7.25267956191
 Al  -6.32925545204 10.28248585426 7.25267956191
 Al  6.89994906683 12.03894857396 2.41756345786
 Al  9.31754495968 10.28248585426 -2.41756345786
 Al  1.49413394216 13.79541129366 2.41756345786
 Al  -1.49413394216 13.79541129366 -2.41756345786
 Al  -11.73508679421 2.84201311736 7.25267956191
 Al  -11.73508679421 -2.84201311735 7.25267956191
 Al  -9.31754495968 10.28248585426 2.41756345786
 Al  -6.89994906683 12.03894857396 -2.41756345786
 Al  -12.65851090408 5.68401542304 2.41756345786
 Al  -13.58193501395 2.84201311736 -2.41756345786
 Al  -6.32925545204 -10.28248585425 7.25267956191
 Al  -0.92342410987 -12.03894857395 7.25267956191
 Al  -12.65851090408 -5.68401542303 2.41756345786
 Al  -13.58193501395 -2.84201311735 -2.41756345786
 Al  -9.31754495968 -10.28248585425 2.41756345786
 Al  -6.89994906683 -12.03894857395 -2.41756345786
 Al  6.89994906683 -12.03894857395 2.41756345786
 Al  9.31754495968 -10.28248585425 -2.41756345786
 Al  1.49413394216 -13.79541129365 2.41756345786
 Al  -1.49413394216 -13.79541129365 -2.41756345786
 Al  11.73508679421 -2.84201311735 -7.25267956191
 Al  11.73508679421 2.84201311736 -7.25267956191
 Al  6.32925545204 -10.28248585425 -7.25267956191
 Al  0.92342410987 -12.03894857395 -7.25267956191
 Al  7.82337317670 -5.68401542303 -10.24096906955
 Al  3.91169740001 -2.84201311735 -13.22920451887
 Al  6.32925545204 10.28248585426 -7.25267956191
 Al  0.92342410987 12.03894857396 -7.25267956191
 Al  7.82337317670 5.68401542304 -10.24096906955
 Al  3.91169740001 2.84201311736 -13.22920451887
 Al  -7.82337317670 9.19694086244 -7.25267956191
 Al  -11.16439317942 4.59847583705 -7.25267956191
 Al  -2.98826788431 9.19694086244 -10.24096906955
 Al  -1.49413394216 4.59847583705 -13.22920451887
 Al  -11.16439317942 -4.59847583704 -7.25267956191
 Al  -7.82337317670 -9.19694086243 -7.25267956191
 Al  -9.67022139644 -0.00000000008 -10.24096906955
 Al  -4.83512150988 -0.00000000004 -13.22920451887
 Al  -2.98826788431 -9.19694086243 -10.24096906955
 Al  -1.49413394216 -4.59847583704 -13.22920451887
 Al  6.32925545204 4.59847583705 10.24096906955
 Al  6.32925545204 -4.59847583704 10.24096906955
 Al  -2.41756345786 7.44047814274 10.24096906955
 Al  -7.82337317670 -0.00000000007 10.24096906955
 Al  -2.41756345786 -7.44047814273 10.24096906955
 Al  10.24096906955 7.44047814274 2.41756345786
 Al  10.24096906955 -7.44047814273 2.41756345786
 Al  12.65851090408 0.00000000000 -2.41756345786
 Al  -3.91169740002 12.03894857396 2.41756345786
 Al  3.91169740001 12.03894857396 -2.41756345786
 Al  -12.65851090408 -0.00000000011 2.41756345786
 Al  -10.24096906955 7.44047814274 -2.41756345786
 Al  -3.91169740002 -12.03894857395 2.41756345786
 Al  -10.24096906955 -7.44047814273 -2.41756345786
 Al  3.91169740001 -12.03894857395 -2.41756345786
 Al  7.82337317670 0.00000000000 -10.24096906955
 Al  2.41756345786 -7.44047814273 -10.24096906955
 Al  2.41756345786 7.44047814274 -10.24096906955
 Al  -6.32925545204 4.59847583705 -10.24096906955
 Al  -6.32925545204 -4.59847583704 -10.24096906955
K_POINTS gamma
