 &control
    calculation='scf'
    restart_mode='from_scratch'
    pseudo_dir = '.'
    prefix='CrI3-HT-afm'
    disk_io='minimal'
 /
 &system
    ibrav=0, nat=  144, ntyp= 4, ecutwfc =100.0,
    occupations='smearing', nosym=true, smearing='fd', degauss=0.003166808435346783,
    noinv=true,nspin=2,
    vdw_corr='dft-d3',dftd3_version=6,
    starting_magnetization(1)=0.1,starting_magnetization(2)=0.1,
    starting_magnetization(3)=-0.1,starting_magnetization(4)=-0.1
 /
 &electrons
    diagonalization='david'
    conv_thr=1.0D-7
    mixing_beta=0.2
 /
 &ions
 /
 &cell
    cell_dofree='2Dxy'
 /
ATOMIC_SPECIES
 Cr1 52 Cr.upf
 I1  127 I.upf
 Cr2 52 Cr.upf
 I2  127 I.upf
ATOMIC_POSITIONS crystal
I1               0.2988865845        0.1479542297        0.3138152191
I1               0.1853314547        0.2615754071        0.3138331976
I1               0.0718132220        0.0344215747        0.3138431494
Cr1              0.0742378621        0.2590923508        0.3593674701
Cr1              0.2964486669        0.0368850274        0.3593674538
I1               0.2989491439        0.2615599977        0.4049208176
I1               0.0717239448        0.1480025931        0.4049317589
I1               0.1853773195        0.0344051502        0.4049487921
I2               0.0767008211        0.1479540299        0.5950504531
I2               0.2964410658        0.2616147871        0.5950693459
I2               0.1828842841        0.0343813130        0.5950792715
Cr2              0.1853473382        0.2590932365        0.6406325333
Cr2              0.0742268905        0.0368839053        0.6406325401
I2               0.0766883958        0.2615214597        0.6861567919
I2               0.1828693766        0.1480028145        0.6861666978
I2               0.2964888072        0.0344425817        0.6861845662
I1               0.2988877587        0.4812888403        0.3138152071
I1               0.1853303767        0.5949084943        0.3138332165
I1               0.0718139928        0.3677543356        0.3138432123
Cr1              0.0742378684        0.5924291994        0.3593674685
Cr1              0.2964501829        0.3702205899        0.3593674894
I1               0.2989501171        0.5948924443        0.4049209259
I1               0.0717247318        0.4813382794        0.4049316019
I1               0.1853777860        0.3677384321        0.4049487382
I2               0.0767016648        0.4812892425        0.5950503232
I2               0.2964414421        0.5949472563        0.5950690337
I2               0.1828845148        0.3677159192        0.5950792845
Cr2              0.1853498004        0.5924276271        0.6406325312
Cr2              0.0742275368        0.3702203497        0.6406325164
I2               0.0766892854        0.5948534216        0.6861569226
I2               0.1828707560        0.4813370293        0.6861668584
I2               0.2964882758        0.3677769201        0.6861845520
I1               0.2988868400        0.8146203748        0.3138153252
I1               0.1853297826        0.9282412911        0.3138331745
I1               0.0718132151        0.7010892731        0.3138430707
Cr1              0.0742369514        0.9257603832        0.3593675004
Cr1              0.2964502336        0.7035511429        0.3593674866
I1               0.2989489509        0.9282258974        0.4049209062
I1               0.0717239811        0.8146704134        0.4049316920
I1               0.1853789057        0.7010726199        0.4049487542
I2               0.0767011348        0.8146204207        0.5950504563
I2               0.2964408998        0.9282795424        0.5950691383
I2               0.1828856729        0.7010492485        0.5950791289
Cr2              0.1853482306        0.9257594113        0.6406325371
Cr2              0.0742279134        0.7035505905        0.6406325146
I2               0.0766887446        0.9281866818        0.6861569082
I2               0.1828705340        0.8146691430        0.6861667818
I2               0.2964887648        0.7011109983        0.6861848075
I1               0.6322213344        0.1479540330        0.3138154979
I1               0.5186626115        0.2615755868        0.3138333195
I1               0.4051450843        0.0344207766        0.3138431561
Cr1              0.4075680318        0.2590923604        0.3593674706
Cr1              0.6297813922        0.0368828757        0.3593674581
I1               0.6322837043        0.2615608369        0.4049206011
I1               0.4050558409        0.1480029946        0.4049316314
I1               0.5187101207        0.0344036808        0.4049486181
I2               0.4100360561        0.1479542320        0.5950506420
I2               0.6297767456        0.2616149267        0.5950692636
I2               0.5162188860        0.0343816015        0.5950792858
Cr2              0.5186838921        0.2590936985        0.6406325463
Cr2              0.4075606840        0.0368831173        0.6406325474
I2               0.4100239531        0.2615218684        0.6861566401
I2               0.5162037508        0.1480022695        0.6861667108
I2               0.6298230100        0.0344439724        0.6861847149
I1               0.6322215160        0.4812899339        0.3138153573
I1               0.5186630113        0.5949078737        0.3138330789
I1               0.4051459788        0.3677548622        0.3138432034
Cr1              0.4075703219        0.5924269976        0.3593674648
Cr1              0.6297814297        0.3702199625        0.3593674545
I1               0.6322833588        0.5948931073        0.4049207991
I1               0.4050574004        0.4813372209        0.4049317728
I1               0.5187093896        0.3677379617        0.4049487007
I2               0.4100362012        0.4812898767        0.5950505734
I2               0.6297756638        0.5949483393        0.5950691849
I2               0.5162184103        0.3677153944        0.5950793934
Cr2              0.5186843223        0.5924301570        0.6406325240
Cr2              0.4075612616        0.3702196547        0.6406325510
I2               0.4100230620        0.5948548497        0.6861567986
I2               0.5162041859        0.4813379908        0.6861666522
I2               0.6298239248        0.3677773537        0.6861845091
I1               0.6322210434        0.8146214906        0.3138153464
I1               0.5186619289        0.9282405319        0.3138332259
I1               0.4051466476        0.7010880995        0.3138430635
Cr1              0.4075680998        0.9257594482        0.3593674625
Cr1              0.6297807929        0.7035511994        0.3593674862
I1               0.6322838646        0.9282251310        0.4049207629
I1               0.4050567795        0.8146698590        0.4049316367
I1               0.5187104381        0.7010717184        0.4049488643
I2               0.4100354007        0.8146220520        0.5950504307
I2               0.6297760701        0.9282804322        0.5950690167
I2               0.5162185619        0.7010505135        0.5950791772
Cr2              0.5186845924        0.9257601403        0.6406325146
Cr2              0.4075597619        0.7035517630        0.6406325235
I2               0.4100235020        0.9281863837        0.6861567959
I2               0.5162041896        0.8146691573        0.6861668180
I2               0.6298239678        0.7011121406        0.6861847063
I1               0.9655550652        0.1479546042        0.3138153129
I1               0.8519978069        0.2615762172        0.3138333642
I1               0.7384789494        0.0344200491        0.3138432959
Cr1              0.7409036643        0.2590936630        0.3593674402
Cr1              0.9631162860        0.0368850949        0.3593674682
I1               0.9656181520        0.2615601503        0.4049206802
I1               0.7383890510        0.1480024221        0.4049314440
I1               0.8520447039        0.0344044306        0.4049487573
I2               0.7433684927        0.1479545868        0.5950503446
I2               0.9631088143        0.2616141086        0.5950691290
I2               0.8495522100        0.0343827446        0.5950791188
Cr2              0.8520158947        0.2590922145        0.6406325262
Cr2              0.7408950989        0.0368855901        0.6406325417
I2               0.7433568449        0.2615210335        0.6861567993
I2               0.8495377931        0.1480027957        0.6861669566
I2               0.9631551201        0.0344437243        0.6861846330
I1               0.9655558279        0.4812891860        0.3138154256
I1               0.8519972210        0.5949094451        0.3138331979
I1               0.7384782779        0.3677545323        0.3138433499
Cr1              0.7409049438        0.5924292842        0.3593674714
Cr1              0.9631185058        0.3702199913        0.3593674456
I1               0.9656174148        0.5948939912        0.4049208096
I1               0.7383896918        0.4813376001        0.4049315113
I1               0.8520452554        0.3677381465        0.4049485311
I2               0.7433696086        0.4812888163        0.5950504755
I2               0.9631082531        0.5949468113        0.5950690866
I2               0.8495534237        0.3677155695        0.5950791849
Cr2              0.8520165699        0.5924284718        0.6406325268
Cr2              0.7408976409        0.3702201526        0.6406325330
I2               0.7433567799        0.5948547200        0.6861569112
I2               0.8495389785        0.4813379683        0.6861668638
I2               0.9631550575        0.3677773317        0.6861846728
I1               0.9655543536        0.8146220221        0.3138152973
I1               0.8519976320        0.9282413223        0.3138330854
I1               0.7384791199        0.7010890903        0.3138431844
Cr1              0.7409049686        0.9257594387        0.3593674765
Cr1              0.9631163746        0.7035527155        0.3593674692
I1               0.9656166443        0.9282259106        0.4049208632
I1               0.7383898691        0.8146687638        0.4049316636
I1               0.8520450731        0.7010728999        0.4049488498
I2               0.7433680900        0.8146214145        0.5950503905
I2               0.9631072072        0.9282798487        0.5950691481
I2               0.8495528844        0.7010498821        0.5950790624
Cr2              0.8520147474        0.9257604993        0.6406324997
Cr2              0.7408960505        0.7035523349        0.6406325276
I2               0.7433554335        0.9281872391        0.6861569306
I2               0.8495380151        0.8146706267        0.6861668120
I2               0.9631565383        0.7011111647        0.6861846752
CELL_PARAMETERS bohr
  37.072144870  -0.000990849   0.000000000
 -18.536930601  32.105140855   0.000000000
   0.000000000   0.000000000  63.963520780
K_POINTS automatic
2 2 1 0 0 0