 &control
    calculation = 'scf',
    restart_mode='from_scratch'
    prefix='LLZO',
    pseudo_dir = '.',
    outdir='.'
    tprnfor=.true.
    tstress=.true.
    disk_io='none'
 /
 &system    
    ibrav= 0, nat=  192, ntyp= 4,
    ecutwfc = 85,
    occupations='smearing', smearing='fd', degauss=0.0031668318697292041,
 /
 &electrons
  conv_thr=1.0D-6
  mixing_beta=0.2
 /
ATOMIC_SPECIES
 Li  9  Li.upf
 O 16 O.upf
 La 138 La.upf
 Zr  91.24  Zr.upf
ATOMIC_POSITIONS crystal
La      0.50000000000000      0.75000000000000      0.62500000000000
La      0.50000000000000      0.75000000000000      0.12500000000000
La      0.00000000000000      0.75000000000000      0.87500000000000
La     0.00000000000000      0.75000000000000      0.37500000000000
La      0.50000000000000      0.25000000000000      0.37500000000000
La      0.50000000000000      0.25000000000000      0.87500000000000
La     -0.00000000000000      0.25000000000000      0.12500000000000
La      0.00000000000000      0.25000000000000      0.62500000000000
La      0.25000000000000      0.87730000000000      0.50000000000000
La      0.75000000000000      0.87730000000000      0.00000000000000
La      0.12730000000000      0.50000000000000      0.75000000000000
La      0.87270000000000      0.50000000000000      0.25000000000000
La      0.75000000000000      0.12270000000000      0.50000000000000
La      0.25000000000000      0.12270000000000      0.00000000000000
La      0.25000000000000      0.62270000000000      0.00000000000000
La      0.75000000000000      0.62270000000000      0.50000000000000
La      0.12730000000000     -0.00000000000000      0.25000000000000
La      0.87270000000000     -0.00000000000000      0.75000000000000
La      0.75000000000000      0.37730000000000      0.00000000000000
La      0.25000000000000      0.37730000000000      0.50000000000000
La      0.62730000000000      0.00000000000000      0.25000000000000
La      0.37270000000000      0.00000000000000      0.75000000000000
La      0.62730000000000      0.50000000000000      0.75000000000000
La      0.37270000000000      0.50000000000000      0.25000000000000
Zr      0.25000000000000      0.75000000000000      0.75000000000000
Zr      0.75000000000000      0.75000000000000      0.25000000000000
Zr      0.00000000000000      0.50000000000000     -0.00000000000000
Zr      0.00000000000000      0.50000000000000      0.50000000000000
Zr      0.75000000000000      0.25000000000000      0.25000000000000
Zr      0.25000000000000      0.25000000000000      0.75000000000000
Zr      0.25000000000000      0.75000000000000      0.25000000000000
Zr      0.75000000000000      0.75000000000000      0.75000000000000
Zr      0.00000000000000     -0.00000000000000      0.50000000000000
Zr      0.00000000000000     -0.00000000000000     -0.00000000000000
Zr      0.75000000000000      0.25000000000000      0.75000000000000
Zr      0.25000000000000      0.25000000000000      0.25000000000000
Zr      0.50000000000000      0.00000000000000      0.50000000000000
Zr      0.50000000000000      0.00000000000000     -0.00000000000000
Zr      0.50000000000000      0.50000000000000     -0.00000000000000
Zr      0.50000000000000      0.50000000000000      0.50000000000000
Li      0.50000000000000      0.75000000000000      0.37500000000000
Li      0.50000000000000      0.75000000000000      0.87500000000000
Li      0.00000000000000      0.75000000000000      0.62500000000000
Li      0.00000000000000      0.75000000000000      0.12500000000000
Li      0.50000000000000      0.25000000000000      0.62500000000000
Li      0.50000000000000      0.25000000000000      0.12500000000000
Li      0.00000000000000      0.25000000000000      0.37500000000000
Li      0.00000000000000      0.25000000000000      0.87500000000000
Li      0.67740000000000      0.92740000000000      0.62500000000000
Li      0.32260000000000      0.92740000000000      0.12500000000000
Li      0.17740000000000      0.92740000000000      0.87500000000000
Li      0.82260000000000      0.92740000000000      0.37500000000000
Li      0.32260000000000      0.07260000000000      0.37500000000000
Li      0.67740000000000      0.07260000000000      0.87500000000000
Li      0.82260000000000      0.07260000000000      0.12500000000000
Li      0.17740000000000      0.07260000000000      0.62500000000000
Li      0.67740000000000      0.57260000000000      0.12500000000000
Li      0.32260000000000      0.57260000000000      0.62500000000000
Li      0.17740000000000      0.57260000000000      0.37500000000000
Li      0.82260000000000      0.57260000000000      0.87500000000000
Li      0.32260000000000      0.42740000000000      0.87500000000000
Li      0.67740000000000      0.42740000000000      0.37500000000000
Li      0.82260000000000      0.42740000000000      0.62500000000000
Li      0.17740000000000      0.42740000000000      0.12500000000000
Li      0.33700000000000      0.83000000000000      0.94510000000000
Li      0.66300000000000      0.83000000000000      0.44510000000000
Li      0.08000000000000      0.58700000000000      0.19510000000000
Li      0.92000000000000      0.58700000000000      0.69510000000000
Li      0.66300000000000      0.17000000000000      0.05490000000000
Li      0.33700000000000      0.17000000000000      0.55490000000000
Li      0.92000000000000      0.41300000000000      0.80490000000000
Li      0.08000000000000      0.41300000000000      0.30490000000000
Li      0.33700000000000      0.67000000000000      0.44510000000000
Li      0.66300000000000      0.67000000000000      0.94510000000000
Li      0.08000000000000      0.91300000000000      0.69510000000000
Li      0.92000000000000      0.91300000000000      0.19510000000000
Li      0.66300000000000      0.33000000000000      0.55490000000000
Li      0.33700000000000      0.33000000000000      0.05490000000000
Li      0.92000000000000      0.08700000000000      0.30490000000000
Li      0.08000000000000      0.08700000000000      0.80490000000000
Li      0.83700000000000      0.33000000000000      0.44510000000000
Li      0.16300000000000      0.33000000000000      0.94510000000000
Li      0.58000000000000      0.08700000000000      0.69510000000000
Li      0.42000000000000      0.08700000000000      0.19510000000000
Li      0.16300000000000      0.67000000000000      0.55490000000000
Li      0.83700000000000      0.67000000000000      0.05490000000000
Li      0.42000000000000      0.91300000000000      0.30490000000000
Li      0.58000000000000      0.91300000000000      0.80490000000000
Li      0.83700000000000      0.17000000000000      0.94510000000000
Li      0.16300000000000      0.17000000000000      0.44510000000000
Li      0.58000000000000      0.41300000000000      0.19510000000000
Li      0.42000000000000      0.41300000000000      0.69510000000000
Li      0.16300000000000      0.83000000000000      0.05490000000000
Li      0.83700000000000      0.83000000000000      0.55490000000000
Li      0.42000000000000      0.58700000000000      0.80490000000000
Li      0.58000000000000      0.58700000000000      0.30490000000000
O      0.30510000000000      0.71600000000000      0.59830000000000
O      0.69490000000000      0.71600000000000      0.09830000000000
O      0.96600000000000      0.55510000000000      0.84830000000000
O      0.03400000000000      0.55510000000000      0.34830000000000
O      0.69490000000000      0.28400000000000      0.40170000000000
O      0.30510000000000      0.28400000000000      0.90170000000000
O      0.03400000000000      0.44490000000000      0.15170000000000
O      0.96600000000000      0.44490000000000      0.65170000000000
O      0.30510000000000      0.78400000000000      0.09830000000000
O      0.69490000000000      0.78400000000000      0.59830000000000
O      0.96600000000000      0.94490000000000      0.34830000000000
O      0.03400000000000      0.94490000000000      0.84830000000000
O      0.69490000000000      0.21600000000000      0.90170000000000
O      0.30510000000000      0.21600000000000      0.40170000000000
O      0.03400000000000      0.05510000000000      0.65170000000000
O      0.96600000000000      0.05510000000000      0.15170000000000
O      0.80510000000000      0.21600000000000      0.09830000000000
O      0.19490000000000      0.21600000000000      0.59830000000000
O      0.46600000000000      0.05510000000000      0.34830000000000
O      0.53400000000000      0.05510000000000      0.84830000000000
O      0.19490000000000      0.78400000000000      0.90170000000000
O      0.80510000000000      0.78400000000000      0.40170000000000
O      0.53400000000000      0.94490000000000      0.65170000000000
O      0.46600000000000      0.94490000000000      0.15170000000000
O      0.80510000000000      0.28400000000000      0.59830000000000
O      0.19490000000000      0.28400000000000      0.09830000000000
O      0.46600000000000      0.44490000000000      0.84830000000000
O      0.53400000000000      0.44490000000000      0.34830000000000
O      0.19490000000000      0.71600000000000      0.40170000000000
O      0.80510000000000      0.71600000000000      0.90170000000000
O      0.53400000000000      0.55510000000000      0.15170000000000
O      0.46600000000000      0.55510000000000      0.65170000000000
O      0.10190000000000      0.80430000000000      0.21660000000000
O      0.89810000000000      0.80430000000000      0.71660000000000
O      0.05430000000000      0.35190000000000      0.46660000000000
O      0.94570000000000      0.35190000000000      0.96660000000000
O      0.89810000000000      0.19570000000000      0.78340000000000
O      0.10190000000000      0.19570000000000      0.28340000000000
O      0.94570000000000      0.64810000000000      0.53340000000000
O      0.05430000000000      0.64810000000000      0.03340000000000
O      0.10190000000000      0.69570000000000      0.71660000000000
O      0.89810000000000      0.69570000000000      0.21660000000000
O      0.05430000000000      0.14810000000000      0.96660000000000
O      0.94570000000000      0.14810000000000      0.46660000000000
O      0.89810000000000      0.30430000000000      0.28340000000000
O      0.10190000000000      0.30430000000000      0.78340000000000
O      0.94570000000000      0.85190000000000      0.03340000000000
O      0.05430000000000      0.85190000000000      0.53340000000000
O      0.60190000000000      0.30430000000000      0.71660000000000
O      0.39810000000000      0.30430000000000      0.21660000000000
O      0.55430000000000      0.85190000000000      0.96660000000000
O      0.44570000000000      0.85190000000000      0.46660000000000
O      0.39810000000000      0.69570000000000      0.28340000000000
O      0.60190000000000      0.69570000000000      0.78340000000000
O      0.44570000000000      0.14810000000000      0.03340000000000
O      0.55430000000000      0.14810000000000      0.53340000000000
O      0.60190000000000      0.19570000000000      0.21660000000000
O      0.39810000000000      0.19570000000000      0.71660000000000
O      0.55430000000000      0.64810000000000      0.46660000000000
O      0.44570000000000      0.64810000000000      0.96660000000000
O      0.39810000000000      0.80430000000000      0.78340000000000
O      0.60190000000000      0.80430000000000      0.28340000000000
O      0.44570000000000      0.35190000000000      0.53340000000000
O      0.55430000000000      0.35190000000000      0.03340000000000
O      0.27810000000000      0.89910000000000      0.30360000000000
O      0.72190000000000      0.89910000000000      0.80360000000000
O      0.14910000000000      0.52810000000000      0.55360000000000
O      0.85090000000000      0.52810000000000      0.05360000000000
O      0.72190000000000      0.10090000000000      0.69640000000000
O      0.27810000000000      0.10090000000000      0.19640000000000
O      0.85090000000000      0.47190000000000      0.44640000000000
O      0.14910000000000      0.47190000000000      0.94640000000000
O      0.27810000000000      0.60090000000000      0.80360000000000
O      0.72190000000000      0.60090000000000      0.30360000000000
O      0.14910000000000      0.97190000000000      0.05360000000000
O      0.85090000000000      0.97190000000000      0.55360000000000
O      0.72190000000000      0.39910000000000      0.19640000000000
O      0.27810000000000      0.39910000000000      0.69640000000000
O      0.85090000000000      0.02810000000000      0.94640000000000
O      0.14910000000000      0.02810000000000      0.44640000000000
O      0.77810000000000      0.39910000000000      0.80360000000000
O      0.22190000000000      0.39910000000000      0.30360000000000
O      0.64910000000000      0.02810000000000      0.05360000000000
O      0.35090000000000      0.02810000000000      0.55360000000000
O      0.22190000000000      0.60090000000000      0.19640000000000
O      0.77810000000000      0.60090000000000      0.69640000000000
O      0.35090000000000      0.97190000000000      0.94640000000000
O      0.64910000000000      0.97190000000000      0.44640000000000
O      0.77810000000000      0.10090000000000      0.30360000000000
O      0.22190000000000      0.10090000000000      0.80360000000000
O      0.64910000000000      0.47190000000000      0.55360000000000
O      0.35090000000000      0.47190000000000      0.05360000000000
O      0.22190000000000      0.89910000000000      0.69640000000000
O      0.77810000000000      0.89910000000000      0.19640000000000
O      0.35090000000000      0.52810000000000      0.44640000000000
O      0.64910000000000      0.52810000000000      0.94640000000000
K_POINTS gamma 
CELL_PARAMETERS {bohr}
24.79112816471347      0.00000000000000      0.00000000000000
0.00000000000000     24.79112816471347      0.00000000000000
0.00000000000000      0.00000000000000     23.94301907627439

