This is a commented line
1.0
3.962794997440925	0.0	0.0
0.0	3.962794997440925	0.0
0.0	0.0	3.5865659976512743
Fe Cu Pt 
1 1 2 
Direct
0.5	0.5	0.0	Fe
0.0	0.0	0.0	Cu
0.0	0.5	0.5	Pt
0.5	0.0	0.5	Pt
