 &control
    calculation='vc-relax'
    restart_mode='from_scratch'
    pseudo_dir = '.'
    prefix='CrI3-HT-fm'
    disk_io='minimal'
 /
 &system
    ibrav=0, nat=  144, ntyp= 4, ecutwfc =100.0,
    occupations='smearing', nosym=true, smearing='fd', degauss=0.003166808435346783,
    noinv=true,nspin=2,
    vdw_corr='dft-d3',dftd3_version=6,
    starting_magnetization(1)=0.1,starting_magnetization(2)=0.1,
    starting_magnetization(3)=0.1,starting_magnetization(4)=0.1
 /
 &electrons
    diagonalization='david'
    conv_thr=1.0D-7
    mixing_beta=0.2
 /
 &ions
 /
 &cell
    cell_dofree='2Dxy'
 /
ATOMIC_SPECIES
 Cr1 52 Cr.upf
 I1  127 I.upf
 Cr2 52 Cr.upf
 I2  127 I.upf
ATOMIC_POSITIONS crystal
I1               0.2988865297        0.1479541627        0.3138150039
I1               0.1853314325        0.2615754551        0.3138330424
I1               0.0718132621        0.0344215311        0.3138429560
Cr1              0.0742378499        0.2590922506        0.3593670076
Cr1              0.2964486096        0.0368851360        0.3593670010
I1               0.2989494390        0.2615602802        0.4049205198
I1               0.0717236752        0.1480026275        0.4049314029
I1               0.1853773361        0.0344048764        0.4049485059
I2               0.0767010310        0.1479539623        0.5950507714
I2               0.2964410984        0.2616151625        0.5950696776
I2               0.1828840775        0.0343809740        0.5950795751
Cr2              0.1853473687        0.2590931378        0.6406329988
Cr2              0.0742269015        0.0368840129        0.6406330022
I2               0.0766884274        0.2615214310        0.6861569777
I2               0.1828693530        0.1480028483        0.6861668738
I2               0.2964888679        0.0344425987        0.6861847550
I1               0.2988877174        0.4812887905        0.3138149897
I1               0.1853303532        0.5949085478        0.3138330701
I1               0.0718140123        0.3677543042        0.3138430254
Cr1              0.0742378527        0.5924291555        0.3593670137
Cr1              0.2964501336        0.3702207103        0.3593670162
I1               0.2989504076        0.5948927083        0.4049206297
I1               0.0717244244        0.4813382915        0.4049312528
I1               0.1853778082        0.3677381570        0.4049484445
I2               0.0767018993        0.4812891644        0.5950506400
I2               0.2964414785        0.5949476254        0.5950693613
I2               0.1828842928        0.3677155783        0.5950795917
Cr2              0.1853498569        0.5924275656        0.6406329894
Cr2              0.0742275448        0.3702204676        0.6406329836
I2               0.0766893089        0.5948533797        0.6861571003
I2               0.1828707314        0.4813370561        0.6861670362
I2               0.2964883421        0.3677769461        0.6861847440
I1               0.2988867884        0.8146203111        0.3138151177
I1               0.1853297603        0.9282413467        0.3138330241
I1               0.0718132622        0.7010892384        0.3138428816
Cr1              0.0742368963        0.9257602975        0.3593670423
Cr1              0.2964501781        0.7035512595        0.3593670278
I1               0.2989492308        0.9282261802        0.4049206103
I1               0.0717236788        0.8146704325        0.4049313413
I1               0.1853789124        0.7010723409        0.4049484701
I2               0.0767013570        0.8146203635        0.5950507642
I2               0.2964409324        0.9282799205        0.5950694639
I2               0.1828854563        0.7010489052        0.5950794275
Cr2              0.1853482747        0.9257593439        0.6406329936
Cr2              0.0742279244        0.7035506920        0.6406329692
I2               0.0766887900        0.9281866325        0.6861570876
I2               0.1828705143        0.8146691710        0.6861669543
I2               0.2964888327        0.7011110146        0.6861849933
I1               0.6322212808        0.1479539734        0.3138152811
I1               0.5186625803        0.2615756387        0.3138331637
I1               0.4051451101        0.0344207402        0.3138429743
Cr1              0.4075680075        0.2590923041        0.3593670087
Cr1              0.6297813318        0.0368829900        0.3593669929
I1               0.6322839825        0.2615610925        0.4049202983
I1               0.4050555397        0.1480030212        0.4049312803
I1               0.5187101373        0.0344033999        0.4049483290
I2               0.4100362791        0.1479541776        0.5950509644
I2               0.6297767715        0.2616152925        0.5950695897
I2               0.5162186731        0.0343812528        0.5950795874
Cr2              0.5186839314        0.2590936178        0.6406330076
Cr2              0.4075606956        0.0368832324        0.6406330081
I2               0.4100239920        0.2615218486        0.6861568276
I2               0.5162037381        0.1480023067        0.6861668895
I2               0.6298230592        0.0344439866        0.6861849045
I1               0.6322214527        0.4812898583        0.3138151461
I1               0.5186629900        0.5949079391        0.3138329290
I1               0.4051460257        0.3677548286        0.3138430107
Cr1              0.4075702574        0.5924269020        0.3593670069
Cr1              0.6297813671        0.3702200691        0.3593669931
I1               0.6322836420        0.5948933890        0.4049205011
I1               0.4050571114        0.4813372458        0.4049314184
I1               0.5187093899        0.3677376725        0.4049484099
I2               0.4100364123        0.4812898176        0.5950508921
I2               0.6297756790        0.5949487118        0.5950695140
I2               0.5162181957        0.3677150608        0.5950796994
Cr2              0.5186843478        0.5924300860        0.6406329846
Cr2              0.4075612677        0.3702197605        0.6406330175
I2               0.4100231049        0.5948548152        0.6861569781
I2               0.5162041643        0.4813380313        0.6861668298
I2               0.6298239887        0.3677773668        0.6861847037
I1               0.6322209911        0.8146214133        0.3138151352
I1               0.5186618847        0.9282405795        0.3138330737
I1               0.4051466849        0.7010880697        0.3138428811
Cr1              0.4075680718        0.9257593596        0.3593670102
Cr1              0.6297807321        0.7035512962        0.3593670260
I1               0.6322841580        0.9282254060        0.4049204631
I1               0.4050564916        0.8146698972        0.4049312910
I1               0.5187104612        0.7010714326        0.4049485780
I2               0.4100356171        0.8146219818        0.5950507463
I2               0.6297760813        0.9282807870        0.5950693398
I2               0.5162183461        0.7010501692        0.5950794821
Cr2              0.5186846133        0.9257600529        0.6406329705
Cr2              0.4075597545        0.7035518752        0.6406329892
I2               0.4100235301        0.9281863310        0.6861569759
I2               0.5162041571        0.8146691951        0.6861669978
I2               0.6298240241        0.7011121645        0.6861848954
I1               0.9655550243        0.1479545378        0.3138150938
I1               0.8519977978        0.2615762918        0.3138332143
I1               0.7384789890        0.0344200056        0.3138431056
Cr1              0.7409035993        0.2590935726        0.3593669837
Cr1              0.9631162390        0.0368852073        0.3593670035
I1               0.9656184417        0.2615604351        0.4049203777
I1               0.7383887604        0.1480024426        0.4049310879
I1               0.8520447088        0.0344041446        0.4049484627
I2               0.7433686990        0.1479545277        0.5950506558
I2               0.9631088704        0.2616144982        0.5950694569
I2               0.8495519812        0.0343823877        0.5950794144
Cr2              0.8520159057        0.2590921330        0.6406329822
Cr2              0.7408950988        0.0368857000        0.6406329970
I2               0.7433568769        0.2615209860        0.6861569806
I2               0.8495377750        0.1480028208        0.6861671324
I2               0.9631551720        0.0344437273        0.6861848184
I1               0.9655557814        0.4812891140        0.3138152174
I1               0.8519971811        0.5949094982        0.3138330410
I1               0.7384783176        0.3677545044        0.3138431627
Cr1              0.7409049159        0.5924291833        0.3593670122
Cr1              0.9631184514        0.3702201009        0.3593669906
I1               0.9656176964        0.5948942659        0.4049205107
I1               0.7383893953        0.4813376258        0.4049311570
I1               0.8520452814        0.3677378634        0.4049482420
I2               0.7433698130        0.4812887472        0.5950507928
I2               0.9631082664        0.5949471690        0.5950694122
I2               0.8495532204        0.3677152482        0.5950794877
Cr2              0.8520165791        0.5924283756        0.6406329862
Cr2              0.7408976407        0.3702202542        0.6406329912
I2               0.7433567983        0.5948546706        0.6861570909
I2               0.8495389427        0.4813380052        0.6861670484
I2               0.9631551406        0.3677773683        0.6861848640
I1               0.9655543030        0.8146219646        0.3138150785
I1               0.8519975969        0.9282413604        0.3138329328
I1               0.7384791241        0.7010890427        0.3138429939
Cr1              0.7409049580        0.9257593902        0.3593670157
Cr1              0.9631163177        0.7035528262        0.3593669996
I1               0.9656169364        0.9282261760        0.4049205682
I1               0.7383895662        0.8146687799        0.4049313108
I1               0.8520450888        0.7010726260        0.4049485527
I2               0.7433682988        0.8146213400        0.5950507100
I2               0.9631072230        0.9282801985        0.5950694777
I2               0.8495526505        0.7010495292        0.5950793642
Cr2              0.8520147760        0.9257604160        0.6406329587
Cr2              0.7408960472        0.7035524364        0.6406329938
I2               0.7433554579        0.9281871963        0.6861571121
I2               0.8495379789        0.8146706519        0.6861669908
I2               0.9631565970        0.7011111875        0.6861848613
CELL_PARAMETERS bohr
  37.072249388  -0.000988686   0.000000000
 -18.536980987  32.105237760   0.000000000
   0.000000000   0.000000000  63.963520780
K_POINTS automatic
2 2 1 0 0 0