This is a commented line
0.5291772105638411
1.46203535e+01  2.27410208e-06  1.04725898e-06
7.31017642e+00  1.26616021e+01  1.07561437e-06   
7.31017826e+00   4.22053017e+00   1.19374704e+01
Si 
16 
Direct
0.4375000450 0.4375000450 0.4375000529 Si
0.4374999573 0.4374999573 0.9374999342 Si
0.4374999425 0.9374999717 0.4374999685 Si
0.4375000346 0.9375000231 0.9375000747 Si
0.9374999717 0.4374999425 0.4374999685 Si
0.9375000231 0.4375000346 0.9375000747 Si
0.9375000287 0.9375000287 0.4375000417 Si
0.9374999768 0.9374999768 0.9374999343 Si
0.0625000232 0.0625000232 0.0625000657 Si
0.0624999713 0.0624999713 0.5624999583 Si
0.0624999769 0.5624999654 0.0624999253 Si
0.0625000283 0.5625000575 0.5625000315 Si
0.5624999654 0.0624999769 0.0624999253 Si
0.5625000575 0.0625000283 0.5625000315 Si
0.5625000427 0.5625000427 0.0625000658 Si
0.5624999550 0.5624999550 0.5624999471 Si
