&CONTROL
    calculation='scf'
    restart_mode='from_scratch',
    prefix='Li2O'
    pseudo_dir = './',
    outdir= "./outdir_scf"
    tprnfor=.true.
 /
 &SYSTEM
    ibrav=  0,
    occupations='smearing',
    smearing='fd',
    degauss=0.003166831869729,
    nat=95, ntyp= 2, 
    ecutwfc = 100
    ecutrho = 400
    nosym = true
    input_dft='r2scan'
 /
 &ELECTRONS
    conv_thr = 1.0D-10
    mixing_beta = 0.5
    diagonalization = 'david'
 /
 &IONS
 /

ATOMIC_SPECIES
  O    15.9999 O_ONCV_PBE-1.2.upf
  Li    6.941  Li_ONCV_PBE-1.2.upf

ATOMIC_POSITIONS crystal
O     0.000000000         0.000000000         0.000000000
O     0.000000000         0.000000000         0.500000000
O     0.000000000         0.500000000         0.000000000
O     0.000000000         0.500000000         0.500000000
O     0.500000000         0.000000000         0.000000000
O     0.500000000         0.000000000         0.500000000
O     0.500000000         0.500000000         0.000000000
O     0.000000000         0.250000000         0.250000000
O     0.000000000         0.250000000         0.750000000
O     0.000000000         0.750000000         0.250000000
O     0.000000000         0.750000000         0.750000000
O     0.500000000         0.250000000         0.250000000
O     0.500000000         0.250000000         0.750000000
O     0.500000000         0.750000000         0.250000000
O     0.500000000         0.750000000         0.750000000
O     0.250000000         0.000000000         0.250000000
O     0.250000000         0.000000000         0.750000000
O     0.250000000         0.500000000         0.250000000
O     0.250000000         0.500000000         0.750000000
O     0.750000000         0.000000000         0.250000000
O     0.750000000         0.000000000         0.750000000
O     0.750000000         0.500000000         0.250000000
O     0.750000000         0.500000000         0.750000000
O     0.250000000         0.250000000         0.000000000
O     0.250000000         0.250000000         0.500000000
O     0.250000000         0.750000000         0.000000000
O     0.250000000         0.750000000         0.500000000
O     0.750000000         0.250000000         0.000000000
O     0.750000000         0.250000000         0.500000000
O     0.750000000         0.750000000         0.000000000
O     0.750000000         0.750000000         0.500000000
Li    0.125000000         0.125000000         0.375000000
Li    0.125000000         0.125000000         0.875000000
Li    0.125000000         0.625000000         0.375000000
Li    0.125000000         0.625000000         0.875000000
Li    0.625000000         0.125000000         0.375000000
Li    0.625000000         0.125000000         0.875000000
Li    0.625000000         0.625000000         0.375000000
Li    0.625000000         0.625000000         0.875000000
Li    0.125000000         0.375000000         0.125000000
Li    0.125000000         0.375000000         0.625000000
Li    0.125000000         0.875000000         0.125000000
Li    0.125000000         0.875000000         0.625000000
Li    0.625000000         0.375000000         0.125000000
Li    0.625000000         0.375000000         0.625000000
Li    0.625000000         0.875000000         0.125000000
Li    0.625000000         0.875000000         0.625000000
Li    0.375000000         0.125000000         0.125000000
Li    0.375000000         0.125000000         0.625000000
Li    0.375000000         0.625000000         0.125000000
Li    0.375000000         0.625000000         0.625000000
Li    0.875000000         0.125000000         0.125000000
Li    0.875000000         0.125000000         0.625000000
Li    0.875000000         0.625000000         0.125000000
Li    0.875000000         0.625000000         0.625000000
Li    0.375000000         0.375000000         0.375000000
Li    0.375000000         0.375000000         0.875000000
Li    0.375000000         0.875000000         0.375000000
Li    0.375000000         0.875000000         0.875000000
Li    0.875000000         0.375000000         0.375000000
Li    0.875000000         0.375000000         0.875000000
Li    0.875000000         0.875000000         0.375000000
Li    0.875000000         0.875000000         0.875000000
Li    0.375000000         0.375000000         0.125000000
Li    0.375000000         0.375000000         0.625000000
Li    0.375000000         0.875000000         0.125000000
Li    0.375000000         0.875000000         0.625000000
Li    0.875000000         0.375000000         0.125000000
Li    0.875000000         0.375000000         0.625000000
Li    0.875000000         0.875000000         0.125000000
Li    0.875000000         0.875000000         0.625000000
Li    0.375000000         0.125000000         0.375000000
Li    0.375000000         0.125000000         0.875000000
Li    0.375000000         0.625000000         0.375000000
Li    0.375000000         0.625000000         0.875000000
Li    0.875000000         0.125000000         0.375000000
Li    0.875000000         0.125000000         0.875000000
Li    0.875000000         0.625000000         0.375000000
Li    0.875000000         0.625000000         0.875000000
Li    0.125000000         0.375000000         0.375000000
Li    0.125000000         0.375000000         0.875000000
Li    0.125000000         0.875000000         0.375000000
Li    0.125000000         0.875000000         0.875000000
Li    0.625000000         0.375000000         0.375000000
Li    0.625000000         0.375000000         0.875000000
Li    0.625000000         0.875000000         0.375000000
Li    0.625000000         0.875000000         0.875000000
Li    0.125000000         0.125000000         0.125000000
Li    0.125000000         0.125000000         0.625000000
Li    0.125000000         0.625000000         0.125000000
Li    0.125000000         0.625000000         0.625000000
Li    0.625000000         0.125000000         0.125000000
Li    0.625000000         0.125000000         0.625000000
Li    0.625000000         0.625000000         0.125000000
Li    0.625000000         0.625000000         0.625000000

K_POINTS automatic
2 2 2 1 1 1

CELL_PARAMETERS {bohr}
     17.4232681682595      0.00000000000000      0.00000000000000
      0.00000000000000      17.4232681682595      0.00000000000000
      0.00000000000000      0.00000000000000      17.4232681682595